echo
title 1_21_ESP_Calculation
start 1_21

geometry
	C	-1.6049829173147039 	0.7625470849998913  	1.160383406284116   
	N	-1.5639188465504508 	-0.018558249078324145	-0.14473399113884275
	C	-1.4860501561200736 	-1.5059602226766269 	0.16625641433671837 
	C	-2.8493680190412656 	0.25369129272845586 	-0.9197679357171172 
	C	-0.37451586405873954	0.42797196016404354 	-1.0213795204022094 
	C	1.0036398607434769  	0.2442899448999077  	-0.43738034376041396
	C	1.7181264558400056  	-0.9460000381251318 	-0.6487564498220125 
	C	2.9892645643882814  	-1.1182138807214    	-0.09853423205004588
	C	3.5641114290940172  	-0.10332420687246252	0.6621243201696349  
	C	2.8735957678957     	1.0881832184981652  	0.8683939348161347  
	C	1.6022575003311403  	1.2642075338937333  	0.31984209617928994 
	H	-2.5223342332507364 	0.49430815608976175 	1.6937612528602388  
	H	-0.7370752269542193 	0.49306869948191395 	1.7676184384332037  
	H	-1.6023455871736945 	1.8310737398631278  	0.9262753257257644  
	H	-2.402211678694877  	-1.7969631326724589 	0.6896517902191001  
	H	-0.6224369847386217 	-1.6936243750655997 	0.8093517805953707  
	H	-1.3986434906261276 	-2.0541073130513126 	-0.776323877115331  
	H	-3.6998400457994376 	-0.05956718209102801	-0.30667686163066454
	H	-2.9073428290118515 	1.325837444253024   	-1.130047551493437  
	H	-2.821076925837747  	-0.3196990754748481 	-1.8511635313617003 
	H	-0.4533356268727452 	-0.1250085047790242 	-1.9665432513294763 
	H	-0.5378469241626469 	1.4870669371093805  	-1.260073649170959  
	H	1.3035908662620181  	-1.7508291037728339 	-1.2527594144603058 
	H	3.540306340947208   	-2.041108205648584  	-0.2693749011705651 
	H	4.558113279949188   	-0.23640457028881684	1.084702076116824   
	H	3.3345452005423653  	1.8838211044495246  	1.450679293818924   
	H	1.0957740902144697  	2.213300943887361   	0.4844753810677351  
end

charge 1

basis
	* library 6-31G*
end

driver
	maxiter 100
	xyz 1_21
end

dft
	xc b3lyp
	maxiter 2000
end
task dft optimize

esp
	recalculate
	range 0.2
	probe 0.1
	spacing 0.025
end
task esp
