echo
title 1_36_ESP_Calculation
start 1_36

geometry
	C	-1.6346505221335206 	0.687768813433704   	1.1656803085673202  
	N	-1.5615324082737323 	-0.05438541559259822	-0.1605958574549928 
	C	-1.4481020969474596 	-1.5475969676927814 	0.10884522877108727 
	C	-2.8464701194028095 	0.2069692292768875  	-0.9402139673939244 
	C	-0.3761226408275221 	0.4472926586210666  	-1.012475700150726  
	C	1.000937665473264   	0.2822776055836983  	-0.4203762442530908 
	C	1.7478357467369168  	-0.8828236329522654 	-0.6583773906415117 
	C	3.0179296315047024  	-1.038151081274947  	-0.10076751769973971
	C	3.5594030049506933  	-0.031071818896147543	0.6939962927935303  
	C	2.836481196044513   	1.1360057390615348  	0.927163870761356   
	C	1.566076847221019   	1.2950904386124553  	0.3713234172652933  
	H	-1.6574615595972628 	1.7622727159403313  	0.962002474335438   
	H	-0.7656462638340803 	0.4232899810515091  	1.7735452660926545  
	H	-2.5495955377674537 	0.38103448202361406 	1.6821755683325732  
	H	-1.337971013639919  	-2.066147774652953  	-0.8479929638935205 
	H	-0.585828394908072  	-1.7314376822004627 	0.7548367424917678  
	H	-2.3611743682748485 	-1.8767757607032811 	0.6147291929876562  
	H	-2.794888613063517  	-0.33863429477004375	-1.8871731138464625 
	H	-3.6941164889433202 	-0.14533699178926515	-0.344655136171098  
	H	-2.9302067929642055 	1.2828589868324018  	-1.1205607830090356 
	H	-0.5645784783967056 	1.5082580497758644  	-1.222647340664095  
	H	-0.43201188583242306	-0.08026972043853428	-1.9736671799257028 
	H	1.3597551349367116  	-1.6803808236986946 	-1.2890156121573133 
	H	3.594165702233565   	-1.9413923652042784 	-0.29227757554222505
	H	4.552615662312619   	-0.1507305743562242 	1.1224036541480733  
	H	3.2713907998134997  	1.926184490548259   	1.5362950504390838  
	H	1.033765793579278   	2.2258317134609915  	0.557799315817581   
end

charge 1

basis
	* library 6-31G*
end

driver
	maxiter 100
	xyz 1_36
end

dft
	xc b3lyp
	maxiter 2000
end
task dft optimize

esp
	recalculate
	range 0.2
	probe 0.1
	spacing 0.025
end
task esp