echo
title 1_38_ESP_Calculation
start 1_38

geometry
	C	-1.6301402293961587 	0.7345659077663276  	1.1432526999864496  
	N	-1.5610011829387882 	-0.026791065680253558	-0.17230831920296505
	C	-1.4782757749373607 	-1.5180952531269651 	0.11806061399237625 
	C	-2.8346338524145684 	0.24837772576047426 	-0.965605356657206  
	C	-0.3596519418747195 	0.4406040614653641  	-1.0213543891098504 
	C	1.0093809090044137  	0.2574241647583879  	-0.4161250909886516 
	C	1.7356215504502306  	-0.9248296161113453 	-0.6324880317560613 
	C	2.998160556952053   	-1.0967563759308085 	-0.0627241383034283 
	C	3.552689485853609   	-0.08948062024612075	0.7227340236471558  
	C	2.8504971868521887  	1.0942273435804368  	0.9344262389399509  
	C	1.5877022753026007  	1.269937241801471   	0.36638539406346193 
	H	-2.5547558041654503 	0.4523544605788915  	1.656497604802859   
	H	-0.7710844695796526 	0.4618683825794194  	1.7615382134615947  
	H	-1.6307999169603706 	1.8064442504835603  	0.9249894248737598  
	H	-1.3706977033960812 	-2.0515968515775884 	-0.8308169923163616 
	H	-0.6247031059187182 	-1.709534303538157  	0.7733357224530825  
	H	-2.4013708873623525 	-1.8229244058564147 	0.6210046164974067  
	H	-3.6934502394459496 	-0.0796022423591834 	-0.3721605963980933 
	H	-2.8963535737940513 	1.323118450002189   	-1.1610501707875396 
	H	-2.786191378716628  	-0.31091883328599457	-1.9047092080687604 
	H	-0.5261147207703976 	1.502020406595405   	-1.2472325129088242 
	H	-0.4182160396968188 	-0.0987860768387441 	-1.9757988741971415 
	H	1.3372028168655     	-1.7233350859254044 	-1.2554335671956547 
	H	3.558435066584348   	-2.0133387641187115 	-0.2374778134466661 
	H	4.540088111255105   	-0.22222395436399683	1.160621380656246   
	H	3.295760286731068   	1.8841712583164025  	1.536338000815207   
	H	1.0719025755168805  	2.213099795271199   	0.5361011271476296  
end

charge 1

basis
	* library 6-31G*
end

driver
	maxiter 100
	xyz 1_38
end

dft
	xc b3lyp
	maxiter 2000
end
task dft optimize

esp
	recalculate
	range 0.2
	probe 0.1
	spacing 0.025
end
task esp