echo
title CF3_ESP_Calculation
start CF3

geometry
	C	-2.43410461077      	-0.159850340164     	-1.04926992777      
	N	-1.71842880249      	-0.0602080643751    	0.295211717433      
	C	-2.15523667283      	-1.25002159358      	1.14584324732       
	C	-2.11705698         	1.21443710695       	1.03390506714       
	C	-0.219182958328     	-0.0377263386342    	0.0525871328193     
	C	0.644057597676      	-1.01094532716      	0.572574050984      
	C	2.02395861683       	-0.954483380214     	0.325689740256      
	C	2.57525123647       	0.0714699372255     	-0.451910919817     
	C	4.0692660286        	0.142143579161      	-0.69664081142      
	F	4.65789742216       	-1.08338325977      	-0.708510538375     
	F	4.70561620214       	0.86465709965       	0.261976037276      
	F	4.37882104066       	0.724525383121      	-1.88563285488      
	C	1.71834926261       	1.0513890667        	-0.965468855313     
	C	0.340451773216      	0.995089247746      	-0.718990834833     
	H	-2.24007011971      	0.741388759115      	-1.6374233853       
	H	-2.076414964        	-1.0530285282       	-1.57154475543      
	H	-3.50918441173      	-0.239015674072     	-0.858400057261     
	H	-3.24184619851      	-1.19836966639      	1.27402886468       
	H	-1.89805569889      	-2.17773168726      	0.624725931675      
	H	-1.67419910199      	-1.18596988967      	2.1270843422        
	H	-1.92875530252      	2.0831722594        	0.396969628575      
	H	-1.53987313026      	1.27692986692       	1.96203939783       
	H	-3.18723637692      	1.15847275683       	1.25765254869       
	H	0.299842737468      	-1.84051674381      	1.1813889607        
	H	2.67409081984       	-1.72411168507      	0.746114488575      
	H	2.12373807774       	1.86783036604       	-1.56552405218      
	H	-0.271695486474     	1.7838567495        	-1.14847416358      
end

charge 1

basis
	* library 6-31G*
end

dft
	xc b3lyp
	maxiter 100
end
task dft optimize

esp
	recalculate
	range 0.2
	probe 0.1
	spacing 0.025
end
task esp