echo
title 1_ESP_calculation
start 1

geometry
	C	-2.94710971894      	0.226708601242      	-0.540723597772     
	N	-1.56597338163      	0.0815458617579     	0.0905977715883     
	C	-1.36057303028      	1.21578488661       	1.08380459489       
	C	-0.516375886017     	0.137063410968      	-1.03981832435      
	C	0.928988144079      	0.0108326159448     	-0.628604037866     
	C	1.68641561026       	1.15092869983       	-0.314842651555     
	C	3.02105770203       	1.03114731222       	0.075770065473      
	C	3.61639660776       	-0.22542099161      	0.151000603882      
	C	2.88206276178       	-1.36392103872      	-0.170903867323     
	C	1.54718165752       	-1.24827610625      	-0.561943831529     
	C	-1.50346183816      	-1.24670013416      	0.830192134571      
	H	-2.99173122656      	1.18842661037       	-1.06051452194      
	H	-3.69958132033      	0.188660624497      	0.252782775037      
	H	-3.09539027615      	-0.597815181886     	-1.24446253232      
	H	-2.18995514653      	1.20289400973       	1.79790313486       
	H	-0.418158496818     	1.06132303907       	1.61541907594       
	H	-1.34947052622      	2.16146788517       	0.534146812652      
	H	-0.771587581003     	-0.662411716787     	-1.74766075817      
	H	-0.670035851484     	1.08751211004       	-1.56742616345      
	H	1.25517657423       	2.14798288685       	-0.3806091954       
	H	3.60461187263       	1.91857861982       	0.31346576691       
	H	4.65906506952       	-0.316631291997     	0.449069557322      
	H	3.35735503088       	-2.34197508887      	-0.125337662112     
	H	1.00545432639       	-2.15512330423      	-0.823798662195     
	H	-0.555901264605     	-1.31234191693      	1.37096766047       
	H	-1.59417077967      	-2.05593028015      	0.0997939152292     
	H	-2.33428903268      	-1.28431012253      	1.54173193716       
end

charge 1

basis
	* library 6-31G*
end

dft
	xc b3lyp
	maxiter 1000
end
task dft optimize

esp
	recalculate
	range 0.2
	probe 0.1
	spacing 0.025
end
task esp