echo
title 2_ESP_Calculation
start 2

geometry
	C	-1.81231958686      	-0.806223678853     	1.43772946144       
	N	-2.10316466204      	0.128594971946      	0.272695544056      
	C	-2.26244593796      	-0.692008437376     	-0.998923976156     
	C	-0.991574723604     	1.18714982212       	0.116963068565      
	C	0.400193755904      	0.674340151638      	-0.164129613724     
	C	1.282091983         	0.383030593299      	0.887815725916      
	C	2.56837402119       	-0.0976044183765    	0.627031234387      
	C	3.00289814569       	-0.298053674218     	-0.690418943375     
	C	4.40385172642       	-0.794955471925     	-0.97246811304      
	F	5.29603696293       	0.22350042616       	-1.08964537354      
	F	4.88036260209       	-1.60984472085      	0.00787716390207    
	F	4.48586907185       	-1.50994317923      	-2.12756488149      
	C	2.13072905276       	0.0134815645377     	-1.74252908455      
	C	0.844201349357      	0.494174353615      	-1.4830652673       
	C	-3.41462561762      	0.859833556139      	0.549240883065      
	H	-1.64608779413      	-0.20247908961      	2.33461801135       
	H	-0.930642642477     	-1.40796870054      	1.20277660343       
	H	-2.67710585921      	-1.46234680128      	1.57765505731       
	H	-1.36510476792      	-1.29767363639      	-1.14924080703      
	H	-3.13108957351      	-1.34718791536      	-0.880060624624     
	H	-2.41688704897      	-0.0069148567265    	-1.83757817481      
	H	-1.30744429114      	1.86114215522       	-0.690067515555     
	H	-0.987702514275     	1.78005339915       	1.04096911841       
	H	0.989014698471      	0.537702933186      	1.92515257239       
	H	3.24076665971       	-0.311352790631     	1.45893219109       
	H	2.45875879731       	-0.112855793699     	-2.77514371282      
	H	0.203248676481      	0.737144192359      	-2.32925104879      
	H	-3.30138249324      	1.43824456041       	1.47101843655       
	H	-3.6277899525       	1.52108993679       	-0.295956788726     
	H	-4.21103003771      	0.1179305485        	0.661573358722      
end

charge 1

basis
	* library 6-31G*
end

dft
	xc b3lyp
	maxiter 1000
end
task dft optimize

esp
	recalculate
	range 0.2
	probe 0.1
	spacing 0.025
end
task esp