echo
title 286_6_ESP_Calculation
start 286_6

geometry
	C	-2.6500065733256726 	1.4309398447172095  	-0.24417433181317613
	N	-1.5526614233080291 	0.37603260993317517 	-0.06735335230602904
	C	-1.7438445944462073 	-0.27745695844818713	1.2933078262670061  
	C	-1.7347407633441054 	-0.6775094567526782 	-1.1498944356740433 
	C	-0.18074539230142914	1.101253729483776   	-0.1809897252023687 
	C	1.0906308802679365  	0.28743297996735445 	-0.043001244252134085
	C	1.7312886358625161  	-0.28096924700124193	-1.1653376969025755 
	Cl	1.146278807956245   	-0.05066899843992252	-2.776913490631997  
	C	2.8997794573776217  	-1.0405048416957559 	-1.0374587637967134 
	C	3.468353953556145   	-1.229431880119391  	0.21422219465413336 
	Cl	4.900677127198244   	-2.1634376882920323 	0.3724887084987976  
	C	2.890937309370606   	-0.6518617720652294 	1.3361305348349297  
	C	1.7224525589149617  	0.10740687553952354 	1.2066203900550938  
	Cl	1.126040473237547   	0.8389490914784106  	2.6563066399585615  
	H	-2.539702967249066  	2.1809369470946036  	0.544698290208786   
	H	-3.6233843920297906 	0.9370494533516796  	-0.16692254030114925
	H	-2.533099427745446  	1.8902958288607363  	-1.230230727821015  
	H	-0.9859343554554847 	-1.0537697115367812 	1.4225637107333995  
	H	-1.6691755772145693 	0.49359578697229894 	2.063764343225374   
	H	-2.740371686047119  	-0.7299398407105191 	1.3220201914787264  
	H	-1.6535669869276612 	-0.19235302561981335	-2.12546370101281   
	H	-0.9768346553595243 	-1.453604044343445  	-1.0193100769466612 
	H	-2.731569997881694  	-1.1167049754580636 	-1.0400295537945492 
	H	-0.19489266583264045	1.6256994291932825  	-1.1439177398644451 
	H	-0.20125446434947794	1.9053941931460987  	0.5642695021949489  
	H	3.3755457021555135  	-1.4743890714121155 	-1.9158636933453703 
	H	3.3598010169208377  	-0.7823852578431321 	2.3104687415552307  
end

charge 1

basis
	* library 6-31G*
end

driver
	maxiter 100
	xyz 286_6
end

dft
	xc b3lyp
	maxiter 2000
end
task dft optimize

esp
	recalculate
	range 0.2
	probe 0.1
	spacing 0.025
end
task esp