echo
title 286_17_ESP_Calculation
start 286_17

geometry
	C	-2.6905459820899584 	1.3675630747114167  	-0.14310345487327314
	N	-1.5626676838395723 	0.33857553676437246 	-0.011436161319763442
	C	-1.6910720861905475 	-0.3277997225393449 	1.350347258531952   
	C	-1.7564942771404484 	-0.7123444428273777 	-1.094485947992636  
	C	-0.21334831665768883	1.0976344115769923  	-0.16693497111229555
	C	1.0812620128854051  	0.31413039156807787 	-0.0783433113933411 
	C	1.6963886286647063  	-0.23155266878897676	-1.2259547724053919 
	Cl	1.0508394764401023  	-0.005554308570898075	-2.8148669620686917 
	C	2.886548916549612   	-0.963227508430674  	-1.1435573019680052 
	C	3.5022840396403243  	-1.1460330509780865 	0.08653533680000763 
	Cl	4.961291342147293   	-2.045897877442696  	0.1890297320223745  
	C	2.9501066166135024  	-0.5896454837117057 	1.2316155494516734  
	C	1.7599035946113661  	0.141774023854575   	1.1475853638257272  
	Cl	1.1963280410415202  	0.8495901794484692  	2.621976988691054   
	H	-3.648505342047849  	0.8496775997263672  	-0.03601225056436391
	H	-2.6187665869385888 	1.8357427818025154  	-1.1293280600686815 
	H	-2.571240506841219  	2.1151063418344016  	0.6467882355586898  
	H	-1.608504602722677  	0.4400451806215823  	2.1231976722964245  
	H	-0.9106789162979891 	-1.0862404618884427 	1.4480762077430611  
	H	-2.674829881617339  	-0.8045504373441389 	1.4100234460835808  
	H	-0.9760639143221483 	-1.4705741659360119 	-0.9954285589102183 
	H	-2.7380778428726082 	-1.17632400170913   	-0.9536034835023627 
	H	-1.7206831001450387 	-0.2193118874316508 	-2.0688255190177487 
	H	-0.2732836274514534 	1.6275430487165348  	-1.125099185421682  
	H	-0.22754145493175948	1.8964012647763784  	0.5842271375573656  
	H	3.3420912992755722  	-1.3799578506829622 	-2.040787078412107  
	H	3.4552601542377377  	-0.7147699671197468 	2.188364090468599   
end

charge 1

basis
	* library 6-31G*
end

driver
	maxiter 100
	xyz 286_17
end

dft
	xc b3lyp
	maxiter 2000
end
task dft optimize

esp
	recalculate
	range 0.2
	probe 0.1
	spacing 0.025
end
task esp