echo
title 286_33_ESP_Calculation
start 286_33

geometry
	C	-1.6673322725454514 	0.33352327925454794 	-1.3781752975947588 
	N	-1.5533593788974491 	0.3527905046787981  	0.13893960751320186 
	C	-2.657329261617441  	1.2645683306173323  	0.6849916759585493  
	C	-1.7988558352873458 	-1.051975758921413  	0.669374583247255   
	C	-0.1890376431912697 	0.9287679554582293  	0.6163176295118922  
	C	1.0868398953056095  	0.21520524066107727 	0.21543438820323157 
	C	1.661229820185716   	-0.786691143520579  	1.0274949468224213  
	Cl	0.9852350549155238  	-1.236845095889127  	2.554859817009462   
	C	2.833895716946323   	-1.4525787469396598 	0.6532405256229824  
	C	3.472934769025227   	-1.114989364891497  	-0.5313853642785761 
	Cl	4.91045874202476    	-1.9332943832977443 	-0.9927607486986707 
	C	2.9616735169272133  	-0.1065579077034508 	-1.3359677161739814 
	C	1.788918948214763   	0.5584035574005318  	-0.9603471532627712 
	Cl	1.2777189219929206  	1.8442328449038894  	-1.9985037044533727 
	H	-1.5474042270822865 	1.353991320119954   	-1.7496101901475358 
	H	-0.9045151555443715 	-0.33655801968041066	-1.7817816110663782 
	H	-2.661306550448917  	-0.03991053061418687	-1.6449969416070207 
	H	-3.625478505902053  	0.8732478555304524  	0.35801194495934896 
	H	-2.500809954638571  	2.272712598397001   	0.28985877795353443 
	H	-2.5963571034538533 	1.2661803062304524  	1.777357475438563   
	H	-1.7729194209221535 	-1.0216498681736095 	1.761211912988481   
	H	-1.035967473702222  	-1.7213038878960432 	0.2646554087794633  
	H	-2.788462172864591  	-1.3793904008874043 	0.3345442983680004  
	H	-0.25747853160136863	1.00247970661364    	1.7082683515905601  
	H	-0.1655217409353617 	1.9711615757514704  	0.2767051070156148  
	H	3.257856501912238   	-2.2260993014103936 	1.2920888879722892  
	H	3.4853733411846677  	0.17057933420798316 	-2.249826611671836  
end

charge 1

basis
	* library 6-31G*
end

driver
	maxiter 100
	xyz 286_33
end

dft
	xc b3lyp
	maxiter 2000
end
task dft optimize

esp
	recalculate
	range 0.2
	probe 0.1
	spacing 0.025
end
task esp