%mem=200MB
%chk=C:\G09W\Scratch\B.chk
# opt mp2/6-311++g pop=(nbo,savenbo) geom=connectivity

Title Card Required

0 1
 C                 -1.70928475   -3.75066680    0.87365150
 C                 -0.20903475   -3.75066680    0.87365150
 H                 -2.10439875   -2.70573580    0.87365150
 H                 -2.10462075   -4.27300880   -0.03127050
 H                 -2.10467975   -4.27305380    1.77851450
 H                  0.18646525   -4.79534580    0.87371150
 H                  0.18598725   -3.22812480   -0.03132650
 S                  0.42038567   -2.91796577    2.31546943
 H                  1.73009198   -2.93400045    2.29283622

 1 2 1.0 3 1.0 4 1.0 5 1.0
 2 6 1.0 7 1.0 8 1.0
 3
 4
 5
 6
 7
 8 9 1.0
 9

