%chk=C:\G09W\Scratch\D.chk
# opt mp2/6-311++g pop=nbo geom=connectivity

Title Card Required

0 1
 C                 -9.42733531   -3.24573356   -1.73185324
 C                 -8.03217531   -3.24573356   -1.73185324
 C                 -7.33463731   -2.03798256   -1.73185324
 C                 -8.03229131   -0.82947356   -1.73305224
 C                 -9.42711631   -0.82955156   -1.73353124
 C                -10.12471731   -2.03775756   -1.73253524
 H                 -9.97709431   -4.19805056   -1.73140324
 H                 -6.23495731   -2.03790256   -1.73121924
 H                 -7.48209131    0.12266944   -1.73311124
 H                -11.22432131   -2.03757456   -1.73271524
 S                -10.31750720    0.71174714   -1.73507370
 H                -10.53449735    1.09016794   -2.97031173
 C                 -6.99666513   -5.03688288   -0.32609832
 H                 -6.43852247   -6.00448199   -0.32431228
 H                 -6.38688742   -4.28136153    0.22656461
 H                 -7.95464434   -5.18572120    0.22905702
 O                 -7.26262297   -4.57966976   -1.73001166

 1 2 1.5 6 1.5 7 1.0
 2 3 1.5 17 1.0
 3 4 1.5 8 1.0
 4 5 1.5 9 1.0
 5 6 1.5 11 1.0
 6 10 1.0
 7
 8
 9
 10
 11 12 1.0
 12
 13 14 1.0 15 1.0 16 1.0 17 1.0
 14
 15
 16
 17

