%chk=C:\G09W\Scratch\E.chk
# opt mp2/6-311++g pop=nbo geom=connectivity

Title Card Required

0 1
 C                 -3.72409441   -0.49887579   -0.00063400
 C                 -2.32893441   -0.49887579   -0.00063400
 C                 -1.63139641    0.70887521   -0.00063400
 C                 -2.32905041    1.91738421   -0.00183300
 C                 -3.72387541    1.91730621   -0.00231200
 C                 -4.42147641    0.70910021   -0.00131600
 H                 -4.27385341   -1.45119279   -0.00018400
 H                 -1.77942641   -1.45138879    0.00068100
 H                 -4.27399741    2.86958721   -0.00326500
 H                 -5.52108041    0.70928321   -0.00149600
 C                 -1.55854633    3.25077218   -0.00191562
 H                 -0.60019921    3.09981831    0.55197900
 H                 -2.16716578    4.00532139    0.55327830
 S                  0.14860329    0.70900471    0.00039223
 H                  0.58565092   -0.39443613    0.55492598
 H                 -1.36981629    3.57873457   -1.00277607

 1 2 1.5 6 1.5 7 1.0
 2 3 1.5 8 1.0
 3 4 1.5 14 1.0
 4 5 1.5 11 1.0
 5 6 1.5 9 1.0
 6 10 1.0
 7
 8
 9
 10
 11 12 1.0 13 1.0 16 1.0
 12
 13
 14 15 1.0
 15
 16

