echo
title 365_ESP_Calculation
start 365

geometry
	C	-2.55111013082301   	1.263592845841006   	-1.4599865075483092 
	N	-2.801366777965826  	0.1666195092369363  	-0.4362023472860483 
	C	-2.850336532890821  	0.7833952772856322  	0.9543318587222335  
	C	-4.150261977259356  	-0.48205329987893714	-0.7314375903601874 
	C	-1.7168177784165688 	-0.9285124832110914 	-0.5199920350509412 
	C	-0.2957041874211662 	-0.4958086292603944 	-0.26080277153848747
	C	0.22990258997758792 	-0.5135445760718551 	1.0390990274509717  
	C	1.5416540731524186  	-0.10062336157113046	1.2802851540121918  
	C	2.365341966690423   	0.32018006428515294 	0.22849109986834668 
	C	3.77778875989035    	0.7886036652025273  	0.49657403693874164 
	O	4.429046765134159   	-0.03584410772090682	1.4623336132586748  
	C	5.0303077471316815  	-1.187183790338969  	0.8825138728891327  
	C	1.8445504033628812  	0.33582268526644904 	-1.0702634556075097 
	C	0.5304204380346195  	-0.07412023869581448	-1.3140177572196123 
	H	-2.462245648265834  	0.8030919136724104  	-2.4482304688761354 
	H	-1.636253968711518  	1.7998861042195173  	-1.1951880127020107 
	H	-3.3997247105551938 	1.9545223503169231  	-1.439342875960454  
	H	-1.927233761490114  	1.3407614828825238  	1.1325847015029908  
	H	-2.9707487965307364 	-0.01992477180056641	1.6869362567166002  
	H	-3.704297376452403  	1.4666372396943332  	0.9981841724099821  
	H	-4.115370598850478  	-0.9132586789776217 	-1.7363845462630265 
	H	-4.331472923183809  	-1.2611514739347864 	0.015049974132597323
	H	-4.927198190764556  	0.2863697441741219  	-0.6747947391691291 
	H	-1.7923594801437    	-1.371791310637063  	-1.5215514021926937 
	H	-2.0020830594627084 	-1.7115687718270327 	0.1947179538394153  
	H	-0.3649518731002654 	-0.8561640806294769 	1.8835626831546786  
	H	1.9348719940241972  	-0.11963888848903746	2.2970094257373366  
	H	4.372234041666476   	0.8426131970084169  	-0.4234462605858347 
	H	3.7245696634710557  	1.8015148393452514  	0.9112262002631184  
	H	4.2821475939210885  	-1.8097461346134065 	0.38294372823191936 
	H	5.490519536462134   	-1.7726257218838535 	1.683055334309238   
	H	5.81114328231486    	-0.894260148700404  	0.1740758430346239  
	H	2.4654105658076007  	0.6605652920896197  	-1.9040979972887222 
	H	0.16962835124547415 	-0.06635574227880345	-2.340944477659856  
end

charge 1

basis
	* library 6-31G*
end

driver
	maxiter 100
	xyz 365
end

dft
	xc b3lyp
	maxiter 2000
end
task dft optimize

esp
	recalculate
	range 0.2
	probe 0.1
	spacing 0.025
end
task esp