echo
title 181_ESP_Calculation
start 181

geometry
	C	-2.1669794204515482 	1.0754917403176822  	0.9249713034842485  
	N	-2.3904954693534908 	0.25043592392944247 	-0.2288641686498438 
	C	-3.8054093951752264 	-0.14163355938826463	-0.2143782831182119 
	C	-2.2030223497982484 	1.0613671675880045  	-1.4142367882245097 
	C	-1.6221679232472326 	-0.9559583789989422 	-0.23964731946236745
	C	-0.1809361223070032 	-0.769712446392468  	-0.07257905576943584
	C	0.6098618128602928  	-0.5951728315263872 	-1.169491128609932  
	C	1.9868624869907006  	-0.41829274607134365	-1.0022701906617333 
	C	2.5928116542598434  	-0.4089452104173421 	0.18154455688759408 
	S	4.346208781707704   	-0.2648608815985603 	0.33637371199351607 
	F	5.515401703665639   	-0.7247861259951638 	-1.1252246393302574 
	F	5.063365730783466   	1.2841512798253456  	-1.064365986498196  
	F	5.002346235709178   	-1.5582636232448879 	0.7434370979832318  
	F	5.339954582008796   	0.20168032948116513 	1.9251836658228156  
	F	4.251187011912003   	1.707427413192416   	0.8380312209000398  
	C	1.754206721156069   	-0.5877377408152074 	1.2641935190371127  
	C	0.37417891014333815 	-0.7699547183819795 	1.1738536032290972  
	H	-2.8127087976283627 	1.9845210655390557  	0.7995478035427273  
	H	-2.4812205078199665 	0.5834717831059376  	1.8655670745770927  
	H	-1.1213306105550858 	1.425284141404697   	0.9705572192642384  
	H	-4.069822191676586  	-0.5472369374858682 	-1.213097992192432  
	H	-4.45786868133752   	0.7233280507695897  	0.01199977627127629 
	H	-3.9943131355689103 	-0.955293080107218  	0.5155389544868066  
	H	-3.1111271316084634 	1.6928240264842418  	-1.5126636567307343 
	H	-1.3445700174543591 	1.7342248381848022  	-1.3482419775630656 
	H	-2.1899280028556793 	0.3972360960213119  	-2.304286936902462  
	H	-1.7991871845700247 	-1.4743708622398577 	-1.192429169324812  
	H	-2.0454042388702787 	-1.6179559124485812 	0.5639758074134368  
	H	0.24700085445060832 	-0.5809361065519586 	-2.1905694654659906 
	H	2.5770761320856663  	-0.28423045323592694	-1.89263772357736   
	H	2.303468088109823   	-0.566958267326497  	2.218441662909868   
	H	-0.1674395255651797 	-0.8991439736172275 	2.07443937555918    
end

charge 1

basis
	* library 6-31G*
end

driver
	maxiter 100
	xyz 181
end

dft
	xc b3lyp
	maxiter 2000
end
task dft optimize

esp
	recalculate
	range 0.2
	probe 0.1
	spacing 0.025
end
task esp