echo
title 242_46_ESP_Calculation
start 242_46

geometry
	Br	1.9388260767054994  	-1.8140512140132052 	1.262056101066787   
	C	0.28479434815439164 	-1.4725816249564754 	0.3103046231530027  
	N	-0.01154498987803761	-0.004231675644715418	0.0073014469924644766
	C	-0.08743569777146462	0.734988655750493   	1.3545614420979695  
	Br	-0.6161942444838028 	2.5981829454133156  	1.2612396404095254  
	C	-1.3862689584033283 	0.12100101245814766 	-0.6568497345795856 
	Br	-1.8072248082465927 	-1.0829480011587558 	-2.106882613665212  
	C	1.077005545868542   	0.6573055820488303  	-0.8330433603657643 
	Br	1.684990634735976   	-0.28338294939604386	-2.4043053423911225 
	H	0.3452657071020997  	-2.0493676870043953 	-0.6135726160308526 
	H	-0.5279480721492539 	-1.8632695979993033 	0.9318955856600009  
	H	-0.8159199634584733 	0.22370002433714387 	1.9924111203707506  
	H	0.8971077070940937  	0.7318273573407023  	1.8285838433336932  
	H	-1.502439656776369  	1.1327154480589536  	-1.0550260133749978 
	H	-2.14806547649265   	-0.06913681748607621	0.10669430030624588 
	H	1.9610236417053304  	0.8098434626533616  	-0.206281744576402  
	H	0.7140282062941224  	1.6294050795979775  	-1.1790866784064078 
end

charge 1

basis
	* library 6-31G*
end

driver
	maxiter 100
	xyz 242_46
end

dft
	xc b3lyp
	maxiter 2000
end
task dft optimize

esp
	recalculate
	range 0.2
	probe 0.1
	spacing 0.025
end
task esp