echo
title 242_44_ESP_Calculation
start 242_44

geometry
	Br	0.046506730519781464	-2.6871225192917096 	1.2081970985845483  
	C	0.8507602239357565  	-1.23236619475919   	0.2289971581526989  
	N	0.004390325088421797	0.014554664535085133	0.0047062390667376355
	C	-0.2906107788961252 	0.7188890640114529  	1.3449900991686778  
	Br	-1.7469882375434198 	0.09432146152383236 	2.443649189923193   
	C	-1.3057697945087485 	-0.2760419856795266 	-0.7167464997925161 
	Br	-1.1982591547209849 	-1.1310707918120264 	-2.4428228451811016 
	C	0.8286028294895423  	1.0646158218110071  	-0.7682874789653126 
	Br	1.927393786959504   	0.503742468601182   	-2.250262231927891  
	H	1.126979918081015   	-1.6665051790040677 	-0.7332229445133548 
	H	1.7566024703790384  	-0.9385747057696363 	0.7695093200875531  
	H	0.6202517565859835  	0.7021358359863682  	1.9527402229705675  
	H	-0.5526791552914722 	1.759171432363754   	1.1200335843095441  
	H	-1.8372779699998278 	0.6711259710095195  	-0.8559908129796444 
	H	-1.9160252284884167 	-0.9492677461377399 	-0.11259670998760272
	H	0.14710285482340274 	1.8417309123545478  	-1.130171967053329  
	H	1.539019423586632   	1.5106614902571047  	-0.0627214218626737 
end

charge 1

basis
	* library 6-31G*
end

driver
	maxiter 100
	xyz 242_44
end

dft
	xc b3lyp
	maxiter 2000
end
task dft optimize

esp
	recalculate
	range 0.2
	probe 0.1
	spacing 0.025
end
task esp