echo
title 242_40_ESP_Calculation
start 242_40

geometry
	Br	0.862830900639166   	-1.6456762363204684 	2.278131995246662   
	C	1.2335845499490574  	-0.5156560911906287 	0.7471691353244571  
	N	0.007073186380536856	0.011919848482247173	0.0035206596045583047
	C	-0.8152020275614328 	0.839974923246275   	1.00627010114469    
	Br	-2.3532857500362883 	1.7634650379735488  	0.2705752194285623  
	C	-0.8858354742442713 	-1.1044055351623387 	-0.5306005106719891 
	Br	-0.03422070824683376	-2.5420535969990086 	-1.49565273759712   
	C	0.4475324020274356  	0.9612150377765714  	-1.1151759485243848 
	Br	1.8869265509204773  	0.39568027605107603 	-2.271727146204355  
	H	1.8049359183337585  	0.34329774808211266 	1.1150254964683213  
	H	1.8595116091665194  	-1.1096939255807874 	0.07991931746800443 
	H	-0.16289266217921405	1.6000070338194088  	1.448762634777877   
	H	-1.2109360542987477 	0.18282503693789562 	1.7844616250016674  
	H	-1.6225038342516744 	-0.671141610562614  	-1.2132988799380082 
	H	-1.4097226005138137 	-1.568495480854348  	0.3106787865249769  
	H	-0.40547185713212264	1.1692923707584977  	-1.7668602843980734 
	H	0.7976758510475301  	1.889445163542519   	-0.6511994636557509 
end

charge 1

basis
	* library 6-31G*
end

driver
	maxiter 100
	xyz 242_40
end

dft
	xc b3lyp
	maxiter 2000
end
task dft optimize

esp
	recalculate
	range 0.2
	probe 0.1
	spacing 0.025
end
task esp