echo
title 144_ESP_Calculation
start 144

geometry
	C	-2.2346850805936476 	-0.46760261476784926	-1.2529272545474777 
	N	-2.32286654527435   	-0.1881077334113181 	0.24089077204773454 
	C	-2.122246263230373  	-1.4829495403418194 	1.0173761437905824  
	C	-3.7180813624291957 	0.35133109327678924 	0.5521127169925982  
	C	-1.2927205843528835 	0.882577576047045   	0.6685490253401103  
	C	0.15830441750229143 	0.5750230119172383  	0.4575107982531115  
	C	0.9121523435650712  	-0.055684788922494816	1.4432609790882986  
	F	0.3183009340295086  	-0.4237987949317176 	2.586761058404365   
	C	2.2642978971246777  	-0.3291017868200228 	1.2627385963070656  
	C	2.9009105677102     	0.03616332197464551 	0.07492917510508705 
	O	4.225781279445154   	-0.2871057096767931 	0.017220250658717247
	C	4.948384742557469   	0.11758832470799163 	-1.1411117394866754 
	C	2.1661308753434017  	0.6708243276706125  	-0.9242975070791173 
	C	0.811071518502287   	0.9323756695605583  	-0.7209317856130847 
	F	0.11359934350863245 	1.5306259454184241  	-1.6967880810899363 
	H	-3.043960819792875  	-1.1529498434752248 	-1.523348896191894  
	H	-2.343695062905569  	0.478431144545358   	-1.7908833701812659 
	H	-1.270497387768818  	-0.9337135627130376 	-1.4712788990356929 
	H	-2.150278432466851  	-1.255214161131829  	2.086740405087533   
	H	-1.162396160727691  	-1.9223430052010038 	0.734364534886284   
	H	-2.932394887630143  	-2.170390930725108  	0.7549434577451546  
	H	-3.8662456019786267 	1.2764673364103787  	-0.012873350549698414
	H	-4.456334342421842  	-0.3989843552198811 	0.25328944984804735 
	H	-3.7841797726348116 	0.5426972738722681  	1.6273099983339623  
	H	-1.5593239581595741 	1.8021166763945298  	0.13092441393900553 
	H	-1.4784479776262676 	1.0855379496672106  	1.7315820162664701  
	H	2.8242031417295985  	-0.8247794278038902 	2.0523838138673205  
	H	5.989994724795796   	-0.19089216355002778	-1.0104773074204554 
	H	4.561780297521055   	-0.37864101544189444	-2.0372303461469463 
	H	4.932824368926167   	1.206553007102849   	-1.2547019906996697 
	H	2.6106177877328887  	0.9739467755681072  	-1.866495920780975  
end

charge 1

basis
	* library 6-31G*
end

driver
	maxiter 100
	xyz 144
end

dft
	xc b3lyp
	maxiter 2000
end
task dft optimize

esp
	recalculate
	range 0.2
	probe 0.1
	spacing 0.025
end
task esp