echo
title 29_ESP_Calculation
start 29

geometry
	C	-3.668798209098738  	-0.8739735525694619 	-0.26141564174149046
	N	-2.323069335633713  	-0.15503555683052792	-0.23849191891286042
	C	-1.983151587401534  	0.29148606163106894 	-1.652627222665972  
	C	-2.440006578484262  	1.0701566483289495  	0.6570828201708063  
	C	-1.2653361356277586 	-1.1401754780806959 	0.3024864528298201  
	C	0.1486060723579298  	-0.6256553595119784 	0.40634144237432185 
	C	0.5960874081517938  	0.005088812237452927	1.575177951817192   
	C	1.9022744648473704  	0.4924876980570118  	1.6601183194944025  
	C	2.7892055006202447  	0.3523702875630408  	0.5918157419078801  
	O	4.030906736432916   	0.8762904367855108  	0.8112297013944924  
	C	5.001324119753084   	0.7033475785678043  	-0.21491182741441403
	C	2.3583681345902696  	-0.2862926572738105 	-0.5688531769813943 
	C	1.0489059312988258  	-0.7744165986293263 	-0.6602100340775764 
	H	-4.426933086120579  	-0.18390601282261917	-0.6439679311100363 
	H	-3.915354759407153  	-1.1813591800934007 	0.7592662134940753  
	H	-3.584775889930853  	-1.7466186796905399 	-0.9160144677479672 
	H	-1.8472323940941073 	-0.5979611712233067 	-2.274707122644548  
	H	-2.81301269856281   	0.8957761011960347  	-2.032244646170248  
	H	-1.071996435209822  	0.8947510598265718  	-1.6291931384006701 
	H	-3.2764488482137306 	1.6792052368595953  	0.3001536510450059  
	H	-2.626045384442602  	0.735255980473048   	1.6816606330182764  
	H	-1.5147422653354687 	1.6487263402997943  	0.596284810844741   
	H	-1.614010346875776  	-1.4676630309203265 	1.2906724916826477  
	H	-1.2916035005565776 	-2.0221459384600613 	-0.3507593593110127 
	H	-0.05413800670456932	0.12033879128835086 	2.4400036494892294  
	H	2.24097026521189    	0.9804036261025707  	2.5727978212849854  
	H	5.19028702983945    	-0.35843678142712765	-0.4045611329470717 
	H	5.937266507318143   	1.1527879865349397  	0.13048961633235173 
	H	4.700244263688148   	1.2212306562450144  	-1.1314148877051278 
	H	3.020246350713647   	-0.42470388254841535	-1.418769509964717  
	H	0.7519626768748695  	-1.2813594219162867 	-1.5767366131488043 
end

charge 1

basis
	* library 6-31G*
end

driver
	maxiter 100
	xyz 29
end

dft
	xc b3lyp
	maxiter 2000
end
task dft optimize

esp
	recalculate
	range 0.2
	probe 0.1
	spacing 0.025
end
task esp