echo
title 144_42_ESP_Calculation
start 144_42

geometry
	C	-3.563741435400967  	0.5024347424041924  	-1.3167116054993664 
	N	-2.301389907679265  	0.3110322803607144  	-0.47747905667748813
	C	-2.3671410421791026 	-1.0555609880652066 	0.1899686409416732  
	C	-2.260203041348278  	1.399834271767153   	0.586760956616891   
	C	-1.082123450624652  	0.410568875337913   	-1.4229633528601953 
	C	0.2802232116054622  	0.2522930686698654  	-0.8200033108612768 
	C	0.8966821244904692  	-0.9950978532585433 	-0.7392196290490296 
	F	0.2384606989364591  	-2.077125508396234  	-1.1781113036247244 
	C	2.172676079756363   	-1.1558168188941595 	-0.19888456389627557
	C	2.8633250015714466  	-0.042502843187068595	0.27512622892618127 
	O	4.109935073368958   	-0.045647588128975264	0.8310656177002707  
	C	4.804285114023875   	-1.2881046825040878 	0.874029242815157   
	C	2.2621378610698817  	1.2156120184752055  	0.2022850669992191  
	C	0.9893190070252341  	1.3510811572210573  	-0.3428968453697134 
	F	0.42657355048124485 	2.5661797069397214  	-0.394020025768738  
	H	-3.5986469623593873 	-0.285199160745759  	-2.0752984228004694 
	H	-3.520605472742928  	1.4887457107363868  	-1.7882708330441424 
	H	-4.434201164189375  	0.4339417266154372  	-0.6572462790675908 
	H	-1.510268873664257  	-1.1660533815145635 	0.8594139415972966  
	H	-2.3581631876851827 	-1.8237419056610982 	-0.588540693869104  
	H	-3.2948322885018966 	-1.112238545543918  	0.7678380846250366  
	H	-3.188522849058947  	1.3514396394308417  	1.1644007169389439  
	H	-2.174075874174798  	2.3698364265116614  	0.08889832422456462 
	H	-1.4078523606297524 	1.2200202622429546  	1.2467906794673087  
	H	-1.1556702767348157 	1.3851281694546342  	-1.9235150439356228 
	H	-1.2325234064475354 	-0.3461787067505635 	-2.204232994505787  
	H	2.5922242282636745  	-2.1558101693691247 	-0.16450646095515792
	H	4.958934255775883   	-1.6880640406378233 	-0.1334947761982001 
	H	4.278657800115138   	-2.008868180650042  	1.508813111250964   
	H	5.788064529409714   	-1.1065181303932674 	1.3171793898516002  
	H	2.788463057527205   	2.0943804475339753  	0.56763255822547    
end

charge 1

basis
	* library 6-31G*
end

driver
	maxiter 100
	xyz 144_42
end

dft
	xc b3lyp
	maxiter 2000
end
task dft optimize

esp
	recalculate
	range 0.2
	probe 0.1
	spacing 0.025
end
task esp