echo
title 144_13_ESP_Calculation
start 144_13

geometry
	C	-3.5654724584753574 	0.5406873099649828  	-1.2932442645458688 
	N	-2.3050479918132396 	0.2941955437326217  	-0.46556767134893895
	C	-2.348931864704883  	-1.1302726297971348 	0.06954930810337132 
	C	-2.291409015154935  	1.2782598363927828  	0.6968544282397309  
	C	-1.081928666299045  	0.504954938090351   	-1.387533057329948  
	C	0.2793372379079835  	0.315577725148625   	-0.7911340005373008 
	C	0.9189747422435455  	-0.9223089037340965 	-0.8232809271467819 
	F	0.28433196373075625 	-1.970009843527513  	-1.3675396229492567 
	C	2.194346932730697   	-1.1097974475283527 	-0.29015211225189796
	C	2.8605909435559433  	-0.033672406689741044	0.29227711554366076 
	O	4.103479588294503   	-0.06632980290506661	0.8555499569967006  
	C	4.821139496791247   	-1.2943004135241662 	0.786850867278346   
	C	2.235967279707185   	1.2144200031281451  	0.33346496033987416 
	C	0.9642820027089545  	1.3772915404033863  	-0.20684206955327059
	F	0.3787773476886519  	2.5812250665543157  	-0.14777928904322138
	H	-4.438633382545647  	0.3942457433550173  	-0.6502579638763198 
	H	-3.5805215240463313 	-0.17233721700966587	-2.122948314926068  
	H	-3.5381810294770952 	1.567730100988587   	-1.66937791457716   
	H	-3.2790194342536285 	-1.2583074646523131 	0.631955157224067   
	H	-1.4943703249444362 	-1.2876683925275005 	0.7325326445155741  
	H	-2.3203524958742507 	-1.821246423865882  	-0.7777982775459309 
	H	-3.2222839200494637 	1.1584822548379445  	1.2598044398162873  
	H	-1.4399880971723626 	1.052669819607006   	1.3438985797042797  
	H	-2.220657300110694  	2.2923432195293394  	0.29334608388977224 
	H	-1.170888755862701  	1.5208896198638757  	-1.7945830128626308 
	H	-1.212894576963202  	-0.17731244927183798	-2.237843982537437  
	H	2.632683290693942   	-2.1006777950984374 	-0.3467734989822251 
	H	4.305354981933696   	-2.0813156688313192 	1.3465901367663946  
	H	4.989783199389597   	-1.5944624497726816 	-0.2525961062488411 
	H	5.7984426948313255  	-1.1372720352089447 	1.2531098344134572  
	H	2.743089135539115   	2.0643186223489525  	0.7842759356292781  
end

charge 1

basis
	* library 6-31G*
end

driver
	maxiter 100
	xyz 144_13
end

dft
	xc b3lyp
	maxiter 2000
end
task dft optimize

esp
	recalculate
	range 0.2
	probe 0.1
	spacing 0.025
end
task esp