echo
title 144_17_ESP_Calculation
start 144_17

geometry
	C	-3.505797788922616  	1.0613771797852367  	-1.0867790257733403 
	N	-2.2930582523646525 	0.3932850779483675  	-0.44071899777012946
	C	-2.5275457224298234 	-1.1114440632527527 	-0.4162438644551115 
	C	-2.155867173920121  	0.9136560545678466  	0.9832817976233466  
	C	-1.0479644421072474 	0.7488262574111834  	-1.285580335704961  
	C	0.2736903977486205  	0.200882599681931   	-0.8410727608687262 
	C	0.7343395254573506  	-1.0302715609773854 	-1.2991611716375266 
	F	-0.03560420850212477	-1.7513979453896755 	-2.125553782581545  
	C	1.968174395196481   	-1.5385461013679058 	-0.9055231109977774 
	C	2.782111154376182   	-0.8088729719224774 	-0.03680586963490026
	O	3.965325651560676   	-1.4132104212493721 	0.27607536733917404 
	C	4.86989775838819    	-0.6910507073597656 	1.1054736757822108  
	C	2.3419811114822418  	0.4270759136702665  	0.4320917442031924  
	C	1.1000781863648088  	0.9147774268013428  	0.024934828558220906
	F	0.6835216306959123  	2.0987146440410434  	0.4955080857782259  
	H	-4.394053349638069  	0.8163691474740339  	-0.4966440568082887 
	H	-3.6097750674027616 	0.6796423078978979  	-2.1068310767599865 
	H	-3.3419889281836324 	2.1430989934211153  	-1.0959209506306822 
	H	-3.4703505187743207 	-1.3041605017093625 	0.1050689663526159  
	H	-1.7061422671357895 	-1.590721239934758  	0.12233189716016471 
	H	-2.584511189602206  	-1.4714566604092323 	-1.4474252628298852 
	H	-3.096560657770509  	0.7265171386355957  	1.5103785766005389  
	H	-1.343354828944051  	0.37815985606495073 	1.4809394090370094  
	H	-1.9511551071042632 	1.9873126890860597  	0.9431139794003209  
	H	-1.2621401494246434 	0.41639817273673674 	-2.309956817048058  
	H	-1.001424364174224  	1.8452062934109903  	-1.3237183020607814 
	H	2.2977551559966964  	-2.5046743576763126 	-1.280627765892384  
	H	5.769735617828438   	-1.3010009176417772 	1.2296920523307815  
	H	5.166638259205693   	0.25283626502885004 	0.636420146628345   
	H	4.440600328520562   	-0.5210430856248506 	2.0982155035277867  
	H	2.9334448435790716  	1.0337145168534558  	1.1098444833298453  
end

charge 1

basis
	* library 6-31G*
end

driver
	maxiter 100
	xyz 144_17
end

dft
	xc b3lyp
	maxiter 2000
end
task dft optimize

esp
	recalculate
	range 0.2
	probe 0.1
	spacing 0.025
end
task esp