echo
title 4_ESP_Calculation
start 4

geometry
	C	2.0822256630032827  	0.7857032881436098  	1.7791024836738578  
	N	1.5504555279616332  	-0.6199658393201913 	1.5398125288764228  
	C	0.24967102827053006 	-0.798203912449074  	2.3096510247074664  
	C	2.5713843121956765  	-1.6255297273702156 	2.063926375041714   
	C	1.3469173461926762  	-0.8881110561200797 	0.033393649170094575
	C	0.36444172542211317 	0.0023687120376237663	-0.6847554892812868 
	C	0.7863118457447329  	1.1949497202869932  	-1.286856394569513  
	C	-0.13009786483228394	2.026296350129293   	-1.9352764406509708 
	C	-1.487837298354646  	1.683685392656675   	-2.0041898809628176 
	C	-2.4183045358994373 	2.512054447515051   	-2.6512244423748372 
	C	-3.7652015989328134 	2.153816428213042   	-2.7178369801291735 
	C	-4.19768100924689   	0.9637361416094763  	-2.141175042478     
	C	-3.284648494099431  	0.12900961226914134 	-1.4948681794456151 
	C	-1.9260026823071954 	0.4764977387835758  	-1.4162957565778356 
	C	-0.9930680287494058 	-0.35124290010433956	-0.7680475570997526 
	H	2.3170337326885857  	0.8888704199061885  	2.8431420595783727  
	H	1.3139003952209616  	1.512052480549644   	1.5021432862426816  
	H	2.9853716733376845  	0.9227219711443063  	1.1773534995172241  
	H	-0.15345413231438243	-1.7901031671957266 	2.0856945243549934  
	H	-0.4526260525143706 	-0.014582197620085112	2.0141049018023276  
	H	0.467225686140921   	-0.7105943136380385 	3.3787400059233588  
	H	3.508646242817047   	-1.4852930549393355 	1.51717299941677    
	H	2.723942308091094   	-1.4438694980996107 	3.1321153455135855  
	H	2.1793186297179408  	-2.6341289719643446 	1.9024455489738719  
	H	1.0358640905740235  	-1.9366533350714397 	-0.061954388382812135
	H	2.3348660992351875  	-0.807022249133413  	-0.4385082258656313 
	H	1.8326691816934668  	1.4940824272488027  	-1.2714014457871188 
	H	0.2235300690592473  	2.947174919311635   	-2.3972059568195627 
	H	-2.102286298935001  	3.4449346193749286  	-3.1140329309973316 
	H	-4.475996141734776  	2.8028714600782565  	-3.224336519380515  
	H	-5.247133738871371  	0.6837894106466885  	-2.198322766770212  
	H	-3.6490617499235234 	-0.7977550244565894 	-1.0572712469391294 
	H	-1.3393881631751    	-1.2871984625954815 	-0.33185429600285243
end

charge 1

basis
	* library 6-31G*
end

driver
	maxiter 100
	xyz imine_4
end

dft
	xc b3lyp
	maxiter 2000
end
task dft optimize

esp
	recalculate
	range 0.2
	probe 0.1
	spacing 0.025
end
task esp