echo
title 1_ESP_Calculation
start 1

geometry
	C	-2.849368413588752  	-0.7338182613353177 	0.609787203191313   
	N	-1.5652421091406261 	-0.10630895785157057	0.07646990977378001 
	C	-1.559438339013594  	1.3730744667687929  	0.4321903435674923  
	C	-1.540137271119478  	-0.2555024303921154 	-1.4375498541155054 
	C	-0.3712046001751815 	-0.8377863739184296 	0.7259245034005855  
	C	1.0064398180211267  	-0.36832328900597516	0.33119998359364583 
	C	1.653380994967801   	0.6443495682356193  	1.0577822470324587  
	C	2.924122064294036   	1.0848312488623362  	0.6844346950029654  
	C	3.56590378642406    	0.5158293253487597  	-0.4125635284389663 
	C	2.9428624088738644  	-0.499191160455985  	-1.1340934998240317 
	C	1.6721536783271667  	-0.9424081402657952 	-0.7638867004088473 
	H	-2.8691261349733277 	-0.6129840267310325 	1.6970243092356856  
	H	-3.7031028258074903 	-0.22209506231209633	0.15526427739856127 
	H	-2.855133953566344  	-1.7943173009792344 	0.3407424160434416  
	H	-0.6945950214031613 	1.8512759717236178  	-0.034700114468292735
	H	-1.5190860873167866 	1.4686496276819     	1.5211345442593025  
	H	-2.4793179677230093 	1.823778595967581   	0.046620034259959794
	H	-0.6760000040671631 	0.2814469556355263  	-1.8370107957043322 
	H	-2.459831136332579  	0.17884576394724655 	-1.8418773485596527 
	H	-1.4860105672166242 	-1.3205462678716569 	-1.6810953279678058 
	H	-0.48339961703577977	-1.902773181089338  	0.4839553043651143  
	H	-0.49709613324286994	-0.7454353196915555 	1.8126425673612743  
	H	1.1856841216128235  	1.0968637729854445  	1.9300780423210497  
	H	3.4226627721243177  	1.8669263260013909  	1.2539555623853216  
	H	4.559529078537412   	0.855560462116191   	-0.6982445601607685 
	H	3.455999175984254   	-0.9508683695583959 	-1.9809987620891776 
	H	1.2193522825557574  	-1.7490739438159133 	-1.3371854514546404 
end

charge 1

basis
	* library 6-31G*
end

driver
	maxiter 100
	xyz 1
end

dft
	xc b3lyp
	maxiter 2000
end
task dft optimize

esp
	recalculate
	range 0.2
	probe 0.1
	spacing 0.025
end
task esp