echo
title 29_11_ESP_Calculation
start 29_11

geometry
	C	-1.955927140075875  	1.3452971477696454  	-1.1272483910367366 
	N	-2.327760011126174  	0.27870013432402    	-0.10802767044591129
	C	-2.364440167689155  	-1.078255108834871  	-0.7966162087157261 
	C	-3.718438585281322  	0.5869196824235889  	0.4391388889406159  
	C	-1.3392601742368924 	0.2741177055244425  	1.0772176640673286  
	C	0.10566363397554508 	-0.0114999850086345 	0.7526152887281333  
	C	0.5918807351013134  	-1.3259749485360914 	0.7506242169588437  
	C	1.927518430649027   	-1.5855177405394703 	0.4350188736283406  
	C	2.805285857425688   	-0.5451312460593223 	0.12733103942892587 
	O	4.078745531926911   	-0.9428566153601052 	-0.16348041929871948
	C	5.0375314395229     	0.07726040019587183 	-0.4178032047364781 
	C	2.335130240818403   	0.7661385865236632  	0.1410760463986241  
	C	0.9961889662206144  	1.031631058834815   	0.45421060590169254 
	H	-1.8784418736899293 	2.306849333172357   	-0.6115095388944009 
	H	-1.006571771045354  	1.0767036360468472  	-1.5976394159833445 
	H	-2.742817458680644  	1.3854941984049092  	-1.8869393935354843 
	H	-2.574484926018737  	-1.8441479392234745 	-0.04440721157986015
	H	-1.402489796167321  	-1.260212234270065  	-1.2825166671759496 
	H	-3.15763242595996   	-1.0606210451488673 	-1.5506117150514156 
	H	-3.691541803046072  	1.5683206917575239  	0.9220474061612376  
	H	-4.428027746653849  	0.592872467811576   	-0.3937815870910307 
	H	-3.987042030877494  	-0.18972656725560855	1.1614569747313206  
	H	-1.7110296652896988 	-0.467357953152654  	1.7964775834691835  
	H	-1.4230228947697132 	1.255408886017168   	1.5623387188891316  
	H	-0.05095633123103227	-2.167091377818113  	1.0021846632807405  
	H	2.296177161150646   	-2.610138000452614  	0.43690177535734764 
	H	5.155581616849823   	0.733408169921218   	0.4508712942258821  
	H	4.773551089079921   	0.6499262420015415  	-1.3129015103523665 
	H	6.00068574287781    	-0.40760360137600743	-0.6036202129015673 
	H	2.98801706125959    	1.6048207211780545  	-0.0824164165664004 
	H	0.6679272949809537  	2.0695055105844657  	0.47000852319796604 
end

charge 1

basis
	* library 6-31G*
end

driver
	maxiter 100
	xyz 29_11
end

dft
	xc b3lyp
	maxiter 2000
end
task dft optimize

esp
	recalculate
	range 0.2
	probe 0.1
	spacing 0.025
end
task esp