echo
title 29_24_ESP_Calculation
start 29_24

geometry
	C	-2.2183671613308555 	1.4371980523992454  	-0.8620844502984684 
	N	-2.337330364723695  	0.13449924084787054 	-0.08384896002950279
	C	-2.10960654050712   	-1.0345617255238906 	-1.0304944540993286 
	C	-3.7482009665523996 	0.034237084792793776	0.48866596841185483 
	C	-1.340979463844224  	0.09773536144642925 	1.0942383666367494  
	C	0.12375046664538511 	0.18379053973152334 	0.7450839834217623  
	C	0.878049661723175   	-0.9771487500230911 	0.5138816120873879  
	C	2.2352981055796115  	-0.8974090133625725 	0.17799152420610093 
	C	2.8601520991268647  	0.34331724787244167 	0.07399885157549058 
	O	4.16864498382893    	0.5634442349202871  	-0.24825392979394503
	C	4.994033137555496   	-0.5800545347988237 	-0.43727080350718284
	C	2.1182970173376416  	1.5006061285394132  	0.3145853898391657  
	C	0.7650796529800239  	1.4265241342128485  	0.6525381591965616  
	H	-2.3251471001046733 	2.271107263399147   	-0.16228356470829364
	H	-1.24753115460014   	1.4685113120733764  	-1.3631320860925649 
	H	-3.0170928883503225 	1.465925659891781   	-1.6098731882161554 
	H	-1.1406488652802247 	-0.9148959043618102 	-1.521906514630762  
	H	-2.904913299546789  	-1.0293175116071194 	-1.7824284737640803 
	H	-2.14242343226274   	-1.9620741918527025 	-0.4515161108403376 
	H	-3.9121112158556928 	0.8838873956773056  	1.1582126231860004  
	H	-4.463533225468816  	0.05922027806566274 	-0.33897110802199815
	H	-3.8340732805606854 	-0.9089926623067179 	1.0363997676765837  
	H	-1.5366426484262805 	-0.83179541497003   	1.6446728710267169  
	H	-1.6115965052130337 	0.9248942636076737  	1.7634975303001983  
	H	0.4270742527903928  	-1.9641843730469797 	0.6008991572546638  
	H	2.779328225149265   	-1.8220655724233044 	0.008756788625985416
	H	4.651847600012906   	-1.1745982595880644 	-1.2906503983001274 
	H	5.042660826509156   	-1.1865686778331375 	0.4731325126061896  
	H	6.006328966777841   	-0.22901321094830643	-0.6593392622150787 
	H	2.607987178758663   	2.470787526415769   	0.24593000513063526 
	H	0.23166593785226267 	2.354234288208791   	0.8495681933357004  
end

charge 1

basis
	* library 6-31G*
end

driver
	maxiter 100
	xyz 29_24
end

dft
	xc b3lyp
	maxiter 2000
end
task dft optimize

esp
	recalculate
	range 0.2
	probe 0.1
	spacing 0.025
end
task esp