echo
title 29_32_ESP_Calculation
start 29_32

geometry
	C	-2.2288148434090402 	1.3979066587559095  	-0.896007612306498  
	N	-2.3381065720382668 	0.15139473650382934 	-0.029357897393057858
	C	-2.144135072023515  	-1.0805203564733026 	-0.9008270280498815 
	C	-3.734540994763406  	0.1033174490807139  	0.5838619505834616  
	C	-1.3121095507727338 	0.1838708503561815  	1.1231308439866479  
	C	0.1437970029339713  	0.23217220030103614 	0.7322930280097891  
	C	0.8826143071572539  	-0.9488893037005887 	0.5606973983159923  
	C	2.231365015309837   	-0.9049611319102872 	0.1862033048839069  
	C	2.8632188716764406  	0.31991303524678133 	-0.016539718050722865
	O	4.164704967004732   	0.5052948688911602  	-0.3856243642737525 
	C	4.975788613151037   	-0.6562360674620619 	-0.5181840281435095 
	C	2.137055810680223   	1.49784078854224    	0.16435619074618446 
	C	0.7924295107101729  	1.4596542618768362  	0.5404136073054481  
	H	-1.2709951455160196 	1.3861994160294884  	-1.4223113223960624 
	H	-3.0462897281197376 	1.3843125372127463  	-1.6236914669537998 
	H	-2.310842674539851  	2.277753049630998   	-0.2512846050595099 
	H	-1.187194803686299  	-1.0034018193096144 	-1.4233181552019538 
	H	-2.9584238603146    	-1.117864469404241  	-1.6312269772937866 
	H	-2.1694869511456036 	-1.966863026742003  	-0.26026071074469803
	H	-4.470697190142851  	0.07974310323614923 	-0.22535160402916593
	H	-3.874419969792776  	0.9974358759374443  	1.1987225556952625  
	H	-3.813797332706136  	-0.8002510813421072 	1.1957038670876594  
	H	-1.5009679304255563 	-0.7048111671075877 	1.7394647060183872  
	H	-1.558808960735642  	1.0565348740263978  	1.741944566716899   
	H	0.4261711515113347  	-1.9234717089742537 	0.7251232766389735  
	H	2.763468655796135   	-1.844096633032676  	0.06583322313738503 
	H	4.607003839090091   	-1.3031717399903247 	-1.3208687466093378 
	H	5.9848065730708555  	-0.33066832589298584	-0.7886974516164926 
	H	5.042989387053512   	-1.2009535654185324 	0.4293525319189695  
	H	2.632539101644388   	2.4564624363274477  	0.0184108104718904  
	H	0.27167877334196705 	2.403594464261014   	0.6880398266052941  
end

charge 1

basis
	* library 6-31G*
end

driver
	maxiter 100
	xyz 29_32
end

dft
	xc b3lyp
	maxiter 2000
end
task dft optimize

esp
	recalculate
	range 0.2
	probe 0.1
	spacing 0.025
end
task esp