echo
title 3_ESP_Calculation
start 3

geometry
	C	-3.74651293992      	-0.469248679068     	0.319951699275      
	N	-2.33815439394      	0.0864111445479     	0.129815790807      
	C	-2.07713617953      	1.1341942374        	1.20160019321       
	C	-1.34275854199      	-1.08731141743      	0.246101965819      
	C	0.119523727333      	-0.753001402585     	0.088881457275      
	C	0.905741369128      	-0.42046062796      	1.2030982233        
	C	2.26072892179       	-0.0983429854425    	1.05629132895       
	C	2.85139970995       	-0.109565373214     	-0.205313312755     
	O	4.15377370395       	0.186446977626      	-0.489310902223     
	C	5.01052032226       	0.475099047336      	0.609439210334      
	C	2.07771270994       	-0.451181287715     	-1.31538415662      
	C	0.726593191742      	-0.775869633949     	-1.17413070173      
	C	-2.25396301208      	0.74296038625       	-1.24083382828      
	H	-3.80718063959      	-0.928976085351     	1.31093317662       
	H	-4.46113658152      	0.355467146397      	0.239548103202      
	H	-3.93461503433      	-1.21235412382      	-0.460740784923     
	H	-2.87123243559      	1.88564184857       	1.14980723161       
	H	-1.1111360633       	1.60897935857       	1.01158162514       
	H	-2.08532515388      	0.641758901402      	2.17833878797       
	H	-1.51355764299      	-1.55051565247      	1.22669438649       
	H	-1.63689727154      	-1.82771544399      	-0.509290828629     
	H	0.481940700937      	-0.415986852962     	2.20587633937       
	H	2.83018162215       	0.151895835281      	1.94663145176       
	H	5.07456227149       	-0.376801848503     	1.29444080049       
	H	4.68595224313       	1.38013455079       	1.13327267164       
	H	6.01308870128       	0.660571221597      	0.212269683059      
	H	2.54064995764       	-0.472553334997     	-2.30077282454      
	H	0.167628629821      	-1.0540933052       	-2.06527884827      
	H	-3.05218532325      	1.48810519419       	-1.31549514821      
	H	-2.38451766503      	-0.0291035199958    	-2.00464131416      
	H	-1.28368890405      	1.23541572469       	-1.34385325961      
end

charge 1

basis
	* library 6-31G*
end

dft
	xc b3lyp
	maxiter 1000
end
task dft optimize

esp
	recalculate
	range 0.2
	probe 0.1
	spacing 0.025
end
task esp