echo
title 99_28_ESP_Calculation
start 99_28

geometry
	C	-3.6602193700420256 	-0.532389335554988  	0.4392696269839821  
	N	-2.2958705263607215 	-0.058703282710101404	-0.06160788250618301
	C	-2.2259395052940114 	1.4549379975210521  	0.08711203528783712 
	C	-2.168853199142107  	-0.4238878436003655 	-1.5342331168737167 
	C	-1.2118295148142268 	-0.7559355743047985 	0.7845202568528096  
	C	0.22625335617196327 	-0.42675721497861846	0.45364147219568557 
	C	0.8839094785324147  	0.6383882535122049  	1.0897643195628752  
	C	2.218533517817957   	0.9607214622269096  	0.7838719622888144  
	C	2.9053378676996697  	2.107405050094855   	1.4978134205928146  
	F	2.06529416033227    	3.164400282207452   	1.67963937601463    
	F	3.3389496000805967  	1.7521913409087289  	2.734804056708687   
	F	3.9837152898214803  	2.59074122072271    	0.8290307349068446  
	C	2.905762525627782   	0.18648895502621446 	-0.1627605704717961 
	C	2.2746212901674365  	-0.8862553036355176 	-0.8098376185078913 
	C	3.022015805178358   	-1.735437558960877  	-1.8180981063376036 
	F	4.0962356121063035  	-1.1073334353584345 	-2.361530580605206  
	F	3.4795737119441217  	-2.891768676355788  	-1.2723133530041604 
	F	2.225188318073271   	-2.098202355023589  	-2.861862844056455  
	C	0.9393737603892074  	-1.1881224578317908 	-0.4862933140250545 
	H	-3.7153598285737686 	-1.618416825002293  	0.3187122596258715  
	H	-3.7567110278760545 	-0.2568704490833093 	1.493696021358154   
	H	-4.438752567038706  	-0.043748336595124324	-0.15435545678089563
	H	-3.0800099960782643 	1.8933049134070037  	-0.4384732588285288 
	H	-1.2959695088458305 	1.8150914883343954  	-0.3602267339724266 
	H	-2.2685225847435917 	1.7015196407252915  	1.1519535220344477  
	H	-1.2407760865069084 	-0.0016852803000521764	-1.9280460717906367 
	H	-2.170796993537032  	-1.5141252608136313 	-1.6230154270211101 
	H	-3.022557489454597  	0.0021358630335667605	-2.0704554611811106 
	H	-1.3759071891627541 	-1.836570168729916  	0.6817790257827067  
	H	-1.4164066991991633 	-0.5025373629978905 	1.8329427461984245  
	H	0.3664776386998101  	1.2315207745844048  	1.8457522528618484  
	H	3.9474178559547566  	0.41995448864086543 	-0.39666561161236463
	H	0.4658222980749927  	-2.0400550091110117 	-0.9772308007262538 
end

charge 1

basis
	* library 6-31G*
end

driver
	maxiter 100
	xyz 99_28
end

dft
	xc b3lyp
	maxiter 2000
end
task dft optimize

esp
	recalculate
	range 0.2
	probe 0.1
	spacing 0.025
end
task esp