echo
title 99_39_ESP_Calculation
start 99_39

geometry
	C	-2.270240822500991  	-0.6607863055793439 	-1.273360337236377  
	N	-2.29235593379013   	0.1083962232311259  	0.040407565282369454
	C	-2.1235920450314185 	1.59420323449836    	-0.24597013084032282
	C	-3.652408290594835  	-0.10575373023587893	0.7045723832935316  
	C	-1.206316058779391  	-0.4030551784376519 	1.0079574077047992  
	C	0.22809270382709762 	-0.2853066026405629 	0.5447834582480684  
	C	0.9830282421541917  	0.8636994666448761  	0.8303620471925734  
	C	2.3153125731124717  	0.9894352574113444  	0.39689030097622713 
	C	3.108543149344457   	2.236071470976902   	0.733016384324414   
	F	4.174762300103731   	2.4336751420663005  	-0.0842486890823116 
	F	3.5887495804932086  	2.20865454173009    	2.003057753095349   
	F	2.344869590288723   	3.360465265622749   	0.640692867856596   
	C	2.9007454248899265  	-0.06596270440991452	-0.31811540002297495
	C	2.1711674787392936  	-1.2272413537758085 	-0.6130342245646863 
	C	2.8086246974781526  	-2.3759775979152784 	-1.368251549389534  
	F	3.886248305539524   	-2.004437854167065  	-2.1061386302749825 
	F	3.226171859369098   	-3.3647571876074394 	-0.5361944159940774 
	F	1.9341576721483538  	-2.955825347416702  	-2.2371951075903667 
	C	0.840479923729946   	-1.328418673761551  	-0.16837639130108834
	H	-2.342527125558284  	-1.7294136858155646 	-1.0512933765420909 
	H	-1.3420690714238803 	-0.43417806234138007	-1.8042204646955475 
	H	-3.125589829403748  	-0.33960087311919124	-1.8759044270326817 
	H	-2.977989841588345  	1.9301902258779913  	-0.8417533436067163 
	H	-2.0915117808831973 	2.130041807769423   	0.7071046162638857  
	H	-1.20027184160945   	1.7463640989754996  	-0.8107664590134478 
	H	-3.6729360758855005 	0.45886052291321944 	1.6414948087219567  
	H	-4.432313624646799  	0.25386839410362416 	0.026566088726162188
	H	-3.779208463318798  	-1.1753066485533874 	0.8969558700495882  
	H	-1.4403597281707439 	-1.4545099147050156 	1.2198970548607877  
	H	-1.3362428048565334 	0.14658299027977295 	1.9493765836548793  
	H	0.5452741694749899  	1.680143500854283   	1.407296023169689   
	H	3.939757949381622   	0.01617908776302822 	-0.646700141651597  
	H	0.28994771796988345 	-2.2462995102393006 	-0.38161124362703586
end

charge 1

basis
	* library 6-31G*
end

driver
	maxiter 100
	xyz 99_39
end

dft
	xc b3lyp
	maxiter 2000
end
task dft optimize

esp
	recalculate
	range 0.2
	probe 0.1
	spacing 0.025
end
task esp