echo
title 99_48_ESP_Calculation
start 99_48

geometry
	C	-2.3040958837093695 	-0.8149454530532826 	-1.1057044440983501 
	N	-2.286782728254234  	0.028203749934193133	0.16193838370514194 
	C	-2.193617037672693  	1.5000225600554968  	-0.21646633984722577
	C	-3.599567264010834  	-0.19723759828707257	0.9119317579172627  
	C	-1.1307456728020686 	-0.3852268731816931 	1.0946057961934579  
	C	0.2708790318455367  	-0.24150918006946648	0.5462301286353196  
	C	0.9931311140741248  	0.9494507472304359  	0.7241710710495476  
	C	2.294136508031855   	1.0990699454238502  	0.21066359558898926 
	C	3.053357694641142   	2.3918097837492365  	0.4313574517720659  
	F	3.6013551043982175  	2.4565682752302185  	1.6722654775302481  
	F	4.065629587326108   	2.5807146479468672  	-0.45374857705035515
	F	2.2412065030599932  	3.479756744251823   	0.3183787035570221  
	C	2.8824646483121614  	0.02621662524088518 	-0.4754017176779339 
	C	2.185505159310476   	-1.1765884313811819 	-0.6633836443842773 
	C	2.8273392805254267  	-2.342966220328366  	-1.3871970465179593 
	F	3.328265522035512   	-3.265361642958334  	-0.525450163594043  
	F	1.9316630424252008  	-3.0045489514508756 	-2.172084828696328  
	F	3.8481058937547936  	-1.9753645363822188 	-2.2037107259118995 
	C	0.8857035352811903  	-1.3009961803722527 	-0.14019250181461954
	H	-2.321247670798068  	-1.8707471794561334 	-0.8202375329676997 
	H	-1.4155862016163527 	-0.5853446184848137 	-1.6994205917721752 
	H	-3.202748757827604  	-0.5614713525369649 	-1.6766834540747324 
	H	-2.1321583240878543 	2.0913583214910503  	0.7017106741245726  
	H	-1.3087588123641305 	1.6531865032861597  	-0.8395481087150336 
	H	-3.09154525658298   	1.7686995192811188  	-0.781601967939655  
	H	-3.5926115281859867 	0.419906774931151   	1.815323781468208   
	H	-3.6726765833576387 	-1.2577209999942875 	1.1708992781627146  
	H	-4.428532058132936  	0.09299665639840027 	0.2593566793817564  
	H	-1.2320834813360884 	0.21319883383422053 	2.0094113407495082  
	H	-1.3105529971267664 	-1.4304900571712749 	1.3780599604166697  
	H	0.5543790678194989  	1.7813534782851392  	1.2777913665234315  
	H	3.898230905332829   	0.12757509044321694 	-0.8655416328161315 
	H	0.3619576596941598  	-2.2495689819076903 	-0.2704252879424594 
end

charge 1

basis
	* library 6-31G*
end

driver
	maxiter 100
	xyz 99_48
end

dft
	xc b3lyp
	maxiter 2000
end
task dft optimize

esp
	recalculate
	range 0.2
	probe 0.1
	spacing 0.025
end
task esp