echo
title 242_ESP_Calculation
start 242

geometry
	Br	-2.510383501128793  	1.6089503767552904  	0.027688896887296973
	C	-0.6296050806721821 	1.3665673595466266  	-0.31544377454964406
	N	0.010324953968397416	0.01314199524639726 	0.011657847133027565
	C	-0.8340539387875782 	-1.164663348417078  	-0.4581758417032048 
	Br	-1.1633013692409282 	-1.2340103719424937 	-2.3655716892669045 
	C	1.372952049223238   	0.03796333956399352 	-0.7049001215090552 
	Br	2.4483721275093737  	-1.5641371929153047 	-0.5754736159909861 
	C	0.30049749543626025 	-0.10616991388971178	1.5087990704292928  
	Br	-1.1998247163971378 	-0.27759561538931354	2.7078396964601787  
	H	-0.09126469251247288	2.141825712959975   	0.24013574149957853 
	H	-0.5061200825243124 	1.5587803813610195  	-1.386195053597708  
	H	-0.33866116976149163	-2.0975021250590142 	-0.17523833426392146
	H	-1.812977903579509  	-1.1384842657003231 	0.024153257291929617
	H	1.223150792538298   	0.23718930727799584 	-1.7697355398991677 
	H	1.964804614537802   	0.8533072686083673  	-0.274074170855626  
	H	0.8732417450164971  	0.7724874478450413  	1.822918350479436   
	H	0.8928486763745314  	-1.0076503558514618 	1.6816152814555343  
end

charge 1

basis
	* library 6-31G*
end

driver
	maxiter 100
	xyz 242
end

dft
	xc b3lyp
	maxiter 2000
end
task dft optimize

esp
	recalculate
	range 0.2
	probe 0.1
	spacing 0.025
end
task esp