echo
title 382_8_ESP_Calculation
start 382_8

geometry
	C	-3.130072330088894  	-0.8968872330770888 	-0.22316862265439164
	N	-1.7678950245553844 	-0.3004681204450273 	-0.5677082475817341 
	C	-0.9754919954147294 	-1.3303402973241023 	-1.3608434152368347 
	C	-1.9801712943762557 	0.9359257695846898  	-1.426393826665528  
	C	-1.050445393561422  	0.048017267817775   	0.7578850743738342  
	C	0.31384153574421486 	0.6940045650577055  	0.6547433865700287  
	C	1.5013340185737696  	-0.06957415402754777	0.6575075376976837  
	O	1.3386548397332836  	-1.4239412014779822 	0.7762590450442722  
	C	2.497607040923893   	-2.2264392451675317 	0.9904371625735711  
	F	3.2948011572609963  	-2.2032668758778176 	-0.09591578856376025
	F	3.1758895632908097  	-1.8181713814799356 	2.079027966980556   
	F	2.0866799656084     	-3.4964524792718312 	1.1872622807363775  
	C	2.735904297767123   	0.5761481902112202  	0.533869462559632   
	C	2.80218689710657    	1.967400854227391   	0.43576368621528483 
	C	1.6399021859004168  	2.7275948493893885  	0.4656457386136814  
	C	0.40299289762418106 	2.0970874660647523  	0.5763344244903748  
	H	-3.632637191014449  	-1.1776709110840562 	-1.153548248558668  
	H	-3.713179962474896  	-0.1401564818592999 	0.3096891526557577  
	H	-2.9763443038203357 	-1.7778714371413633 	0.4064139560810367  
	H	-0.025732118583280214	-0.8872500480731678 	-1.6718722753514241 
	H	-1.5583680265350388 	-1.6045811817718598 	-2.2466667216081446 
	H	-0.816583316059543  	-2.20925222819178   	-0.7302964849294876 
	H	-2.5870752431484108 	0.6546567211732304  	-2.2925212895757894 
	H	-2.502186375938166  	1.6889915763613788  	-0.8281503239762587 
	H	-1.010031342926781  	1.307581368637336   	-1.7664206891782575 
	H	-1.7265282531926134 	0.7166146515806268  	1.3077458174459091  
	H	-0.9984776464518176 	-0.8799055234396649 	1.3419150002464963  
	H	3.6798323959970123  	0.03684309569581014 	0.5127816551427384  
	H	3.7694000557199554  	2.4593847469784995  	0.34817424169614275 
	H	1.7017800846965385  	3.8129219032193946  	0.40897404831451456 
	H	-0.489587117805467  	2.719055773711794   	0.6130762964416878  
end

charge 1

basis
	* library 6-31G*
end

driver
	maxiter 100
	xyz 382_8
end

dft
	xc b3lyp
	maxiter 2000
end
task dft optimize

esp
	recalculate
	range 0.2
	probe 0.1
	spacing 0.025
end
task esp