echo
title 382_14_ESP_Calculation
start 382_14

geometry
	C	-3.1236797347785745 	-0.9143415716135834 	-0.23243794694127046
	N	-1.7679178920876568 	-0.295628409908889  	-0.562944171862625  
	C	-0.9698036370530068 	-1.2935171543923951 	-1.3892281117158232 
	C	-1.9928686847280928 	0.965052937519663   	-1.3819852875757768 
	C	-1.049431929699907  	0.017282754517239658	0.7708340964306752  
	C	0.3096041087274293  	0.6770267326252442  	0.6879973739331048  
	C	1.5039433761857255  	-0.07622921026121715	0.6709776651742644  
	O	1.3512565796946423  	-1.434431152900624  	0.7382837239054079  
	C	2.5211432593851035  	-2.2452525595904143 	0.8187993243646914  
	F	3.257584083258767   	-2.1195823694387776 	-0.3024781711262512 
	F	2.123581594732486   	-3.530732024279463  	0.9222135902520063  
	F	3.255877073232431   	-1.931541948302892  	1.90123284767684    
	C	2.733874838251094   	0.5850599986660014  	0.5877071760218346  
	C	2.788088504363656   	1.979332834146482   	0.5362594894322135  
	C	1.6181092237545822  	2.727781251398963   	0.5730824063072917  
	C	0.3864424607365674  	2.082739385977262   	0.6522048393281547  
	H	-3.702987668039938  	-0.19002838576895842	0.34792052870327506 
	H	-3.638043007623526  	-1.1487059871763228 	-1.1693673192865832 
	H	-2.9570649031423586 	-1.8267035385870691 	0.3480120257244623  
	H	-0.7977939134484876 	-2.1884296150638995 	-0.7845842246491034 
	H	-1.5539950184247264 	-1.5483990858126027 	-2.279107000316268  
	H	-0.025317855105758822	-0.8337503607253843 	-1.6909655543587268 
	H	-2.600938401977011  	0.7061836952871076  	-2.254487235509687  
	H	-2.517767197469545  	1.6952388743828375  	-0.7592979622546268 
	H	-1.026632586146924  	1.354405565877244   	-1.712824398889412  
	H	-1.7291774021118078 	0.6641213361989103  	1.3418044254761052  
	H	-0.9904879574270944 	-0.9258132558113149 	1.3285340131574315  
	H	3.684065739088834   	0.05610685706763172 	0.5664242387785346  
	H	3.752254184060683   	2.482353618818741   	0.47893387594358927 
	H	1.670286149996232   	3.814830126756479   	0.5494529487754773  
	H	-0.5122033862041443 	2.695570660394937   	0.6990327951000939  
end

charge 1

basis
	* library 6-31G*
end

driver
	maxiter 100
	xyz 382_14
end

dft
	xc b3lyp
	maxiter 2000
end
task dft optimize

esp
	recalculate
	range 0.2
	probe 0.1
	spacing 0.025
end
task esp