echo
title 382_15_ESP_Calculation
start 382_15

geometry
	C	-3.1519537958451593 	-0.8189673551862334 	-0.20471792268517422
	N	-1.7718621980136686 	-0.27316699029776426	-0.56190207993767   
	C	-1.0019815582519982 	-1.3547909949780472 	-1.3054634086360288 
	C	-1.9438017160213759 	0.932866631208037   	-1.4711131365808798 
	C	-1.0554952367931592 	0.10894663082801326 	0.7548783618349101  
	C	0.32695920103448417 	0.7132201915872524  	0.6418450516487877  
	C	1.4937550427743715  	-0.08057716963497866	0.6928742336472197  
	O	1.2920401261737757  	-1.424337708231651  	0.8546671970104684  
	C	2.431406806557199   	-2.2676956524189547 	1.0067736374057294  
	F	3.1826014778238734  	-2.2482497444156198 	-0.11158683706897284
	F	3.1664414785851833  	-1.9033071232886987 	2.0730084576241263  
	F	1.987232704880688   	-3.5278307400366953 	1.1964416069072545  
	C	2.7472532485173065  	0.5297146360874525  	0.5777425952752159  
	C	2.8516980473499625  	1.914002152468941   	0.4280086405215953  
	C	1.7088847004476988  	2.7035710818769587  	0.39736748014546336 
	C	0.4542720509079536  	2.1092389201585067  	0.5071866510224448  
	H	-3.710578053600601  	-0.035260739079194026	0.3156530663670011  
	H	-3.023587241114538  	-1.692796925402413  	0.44106182724755283 
	H	-3.6653456830258206 	-1.1015521376547461 	-1.1287881126802497 
	H	-0.038840268787797914	-0.951007617584065  	-1.627645274223496  
	H	-0.8678232955077017 	-2.209680121874058  	-0.636720574268275  
	H	-1.5863309288566163 	-1.6520414147763844 	-2.181992979938388  
	H	-0.9611536917409687 	1.2636118733464767  	-1.8170516685312608 
	H	-2.4482508781637047 	1.723554086216733   	-0.9082865682476786 
	H	-2.552324942430662  	0.6337250284948484  	-2.330320630614611  
	H	-1.03561091355404   	-0.7933798794042268 	1.3788534619860393  
	H	-1.7171629185247284 	0.8182670838436393  	1.2701658461508527  
	H	3.678117118822623   	-0.03226793543225592	0.6056306528141248  
	H	3.833713109275524   	2.3776626138044312  	0.34678015748736407 
	H	1.800058524693919   	3.7836687874962154  	0.297195226126246   
	H	-0.42233031761234796	2.7548605322794106  	0.4994550421895873  
end

charge 1

basis
	* library 6-31G*
end

driver
	maxiter 100
	xyz 382_15
end

dft
	xc b3lyp
	maxiter 2000
end
task dft optimize

esp
	recalculate
	range 0.2
	probe 0.1
	spacing 0.025
end
task esp