echo
title 382_ESP_Calculation
start 382

geometry
	C	-2.3816579051393387 	-2.0089143578141657 	0.9649239853205497  
	N	-1.6222502374446364 	-0.7361104214721212 	0.5992545431173066  
	C	-2.6020834097481687 	0.26512251797187186 	0.009435703194931932
	C	-1.0143053015785497 	-0.15496488149241902	1.867194119521611   
	C	-0.5210041983437232 	-1.1153308955056325 	-0.41889263080833744
	C	0.3468569955204762  	0.004139981681213615	-0.950589893672921  
	C	1.5743582893464758  	0.3479356242020157  	-0.3428800498691268 
	O	1.9252379072908066  	-0.3960569397118429 	0.7506495048376977  
	C	3.201255794015919   	-0.16848510464301952	1.3447058183205296  
	F	3.3447129927629806  	-1.0470310932995242 	2.3590138584201177  
	F	4.192791750600261   	-0.3674784555536171 	0.4574263976351275  
	F	3.2675599101661397  	1.0779227431700855  	1.8524227838274148  
	C	2.3355375157379714  	1.395452488969636   	-0.8724184760261533 
	C	1.897743149686602   	2.0906900737567393  	-2.0014273203716684 
	C	0.700926816476809   	1.7447969645581842  	-2.6164845692735077 
	C	-0.06856254386981428	0.7058135313817785  	-2.0985309898898326 
	H	-3.163196497170048  	-1.7538303372179727 	1.687167983930749   
	H	-1.675820837608042  	-2.7201519932193547 	1.4046931628746486  
	H	-2.8258450444600047 	-2.4215724442800406 	0.05404030455425015 
	H	-2.9886538394582147 	-0.13917352798682012	-0.9305606331567684 
	H	-2.088420754101649  	1.2158293124797537  	-0.1543632424294005 
	H	-3.420194005507798  	0.4096867383634469  	0.7221945585098107  
	H	-0.5278251248944527 	0.7941863579222148  	1.6288726618821698  
	H	-1.8204199561040881 	0.01678468306885685 	2.5875498902092233  
	H	-0.2972293483953536 	-0.8748155415934521 	2.2720598292051815  
	H	0.0928471000120708  	-1.8928830825731893 	0.05288220805688565 
	H	-1.034057069288434  	-1.6030065716430253 	-1.2587460443003207 
	H	3.2847846059597745  	1.7068233201829992  	-0.4418534466293543 
	H	2.5028535348784806  	2.8996163103905093  	-2.4081970972263815 
	H	0.37543171351732935 	2.281149787004599   	-3.5060859705928706 
	H	-0.9913720028568411 	0.4438552129034396  	-2.613456949170951  
end

charge 1

basis
	* library 6-31G*
end

driver
	maxiter 100
	xyz 382
end

dft
	xc b3lyp
	maxiter 2000
end
task dft optimize

esp
	recalculate
	range 0.2
	probe 0.1
	spacing 0.025
end
task esp