echo
title 371_37_ESP_Calculation
start 371_37

geometry
	C	-1.8549909372923798 	-0.1902075440665743 	1.669668496004384   
	N	-2.116414958263426  	0.040677337431762   	0.18865961053144245 
	C	-3.507756124355208  	0.6440946451224978  	0.024427421962380874
	C	-2.0731535716573015 	-1.2945381322374134 	-0.5396050996329449 
	C	-1.0933719645069546 	1.0311134024498574  	-0.407444977937508  
	C	0.35721347357674754 	0.6244064322716125  	-0.34739089787699906
	C	1.1532484015550477  	0.971219415525268   	0.7546051765458555  
	C	2.4942567871971333  	0.584589284166854   	0.813917673736202   
	C	3.0711891182548925  	-0.1397259675978661 	-0.23343083574190057
	C	4.5054030352991985  	-0.5772419944820278 	-0.1563598373780785 
	C	2.2822066220094643  	-0.48880481713503815	-1.333464221570655  
	C	0.9409578374615742  	-0.10338950351667169	-1.3951992970148037 
	H	-0.9047767704499029 	-0.7170088471118545 	1.7887963789041286  
	H	-1.8304465420139215 	0.7802526964842953  	2.173817642224213   
	H	-2.666898026193155  	-0.8047000783025999 	2.0711520412665694  
	H	-3.6962101997292485 	0.7965129713934779  	-1.04249853211362   
	H	-3.5379518866379795 	1.5976056464023616  	0.5601351545730909  
	H	-4.241537365947161  	-0.05066604962411299	0.4441735620940296  
	H	-2.204093763213018  	-1.1111404736319177 	-1.6100171687872187 
	H	-2.887275803686846  	-1.9202614767113209 	-0.1605848471620727 
	H	-1.115038659777328  	-1.7813607911554086 	-0.34050674039889184
	H	-1.233134361773502  	1.9845968198776534  	0.11856438344063966 
	H	-1.388170605077733  	1.1997953481605217  	-1.4514693507346172 
	H	0.7480949597947428  	1.5542139229877472  	1.579449412690452   
	H	3.094291660184805   	0.861055662524217   	1.6798631782752178  
	H	5.102687625695859   	0.1410105424054341  	0.4150944020665478  
	H	4.571556423308722   	-1.5568760784846787 	0.32678170354706304 
	H	4.94755028429169    	-0.644290632380397  	-1.1559625329072203 
	H	2.715509040158404   	-1.0563325074640646 	-2.155959184942473  
	H	0.3670562717858003  	-0.37459923330147077	-2.2792127136631244 
end

charge 1

basis
	* library 6-31G*
end

driver
	maxiter 100
	xyz 371_37
end

dft
	xc b3lyp
	maxiter 2000
end
task dft optimize

esp
	recalculate
	range 0.2
	probe 0.1
	spacing 0.025
end
task esp