echo
title 371_47_ESP_Calculation
start 371_47

geometry
	C	-1.8753493562684032 	-0.15848099049113312	1.655243730476171   
	N	-2.1187561990208996 	0.07649678234216668 	0.17175269123201387 
	C	-3.496570011755299  	0.7064610260071681  	-0.005605580880710014
	C	-2.0943226889521984 	-1.2598136334571102 	-0.5554912292802335 
	C	-1.0711782424807101 	1.0464577114656815  	-0.4152200358247428 
	C	0.37027672351094437 	0.6107884355727914  	-0.3409549769279278 
	C	1.163369540294155   	0.94518988493209    	0.7669464181296844  
	C	2.4951216012185236  	0.5300440342678252  	0.840261436743279   
	C	3.0597641749606037  	-0.2292568533679313 	-0.18885709331308104
	C	4.502444678320049   	-0.640617596616219  	-0.12682613170111726
	C	2.282301531872891   	-0.5403426399453027 	-1.3083321857869645 
	C	0.9502991049695814  	-0.12645718640595482	-1.3841781730988196 
	H	-1.836715284041846  	0.811649414799867   	2.1591478966212767  
	H	-2.7025929762421637 	-0.7569632334743518 	2.049534865905716   
	H	-0.936578345042334  	-0.7033949388695274 	1.7833188340606312  
	H	-3.5133479024734253 	1.6606986219401727  	0.5293919693217656  
	H	-3.6721732344897493 	0.8618463586432988  	-1.0742923028305065 
	H	-4.247454582231572  	0.026215613135048638	0.4076157650845167  
	H	-2.9238074176297277 	-1.86954397059639   	-0.18378834301665906
	H	-2.2117363701650685 	-1.0745935942287994 	-1.6271610698903118 
	H	-1.1476176516923209 	-1.7648101909064517 	-0.3472747371823594 
	H	-1.1971879597434045 	2.0028186154019996  	0.10902207812256633 
	H	-1.3528016958301012 	1.2201480844920094  	-1.4620511383290262 
	H	0.7645838756390266  	1.5443160846136768  	1.583311061710619   
	H	3.097176740501298   	0.8094204085721655  	1.7038819984858176  
	H	5.131840040594986   	0.13417854687480327 	-0.5752065261082479 
	H	4.663019724651404   	-1.5821274604741489 	-0.6625207330643614 
	H	4.818765021934536   	-0.7988674567462154 	0.9095582959393812  
	H	2.7170522200819613  	-1.1024370538295454 	-2.1338052040075755 
	H	0.3821749395082861  	-0.37902282365154005	-2.2774215805907088 
end

charge 1

basis
	* library 6-31G*
end

driver
	maxiter 100
	xyz 371_47
end

dft
	xc b3lyp
	maxiter 2000
end
task dft optimize

esp
	recalculate
	range 0.2
	probe 0.1
	spacing 0.025
end
task esp