echo
title 371_4_ESP_Calculation
start 371_4

geometry
	C	-1.854033824896936  	-0.13208073164693246	1.6813750089134114  
	N	-2.1169503344816394 	0.06760238797390977 	0.1960441927264625  
	C	-3.5007680248403568 	0.6850426226559226  	0.02141164862749314 
	C	-2.092936034179354  	-1.2847402135816182 	-0.5009492911665155 
	C	-1.0827331056340332 	1.030257648266785   	-0.4256240809996769 
	C	0.36223938213831425 	0.6050940891261876  	-0.3592497092273774 
	C	1.1666474056201017  	0.9694447408726463  	0.7309070903165403  
	C	2.5017879048544622  	0.5641196709154372  	0.7972147720277064  
	C	3.058627429164328   	-0.21503033128282822	-0.2212640681018544 
	C	4.504523676456168   	-0.6161622595399827 	-0.1676881814514372 
	C	2.269559553958915   	-0.556245840272146  	-1.3237092196991533 
	C	0.9341477650308055  	-0.15223512843344744	-1.392516397669963  
	H	-1.8154155451732765 	0.8494803306857215  	2.1626336992309203  
	H	-2.672615258959558  	-0.7264320705635228 	2.099285647656633   
	H	-0.9103426594244656 	-0.6682435754933818 	1.8102146096650618  
	H	-3.5170563338849203 	1.6511033883305308  	0.5347681405508555  
	H	-4.242258051618615  	0.009869086660956523	0.459185296100761   
	H	-3.6903453183865347 	0.8149811905085382  	-1.0482846210526273 
	H	-2.224543807152712  	-1.1246637360147183 	-1.5750161066290587 
	H	-2.913975862081579  	-1.8908423679668522 	-0.10533507322160159
	H	-1.1406053227179456 	-1.7791528283420792 	-0.2929955337609843 
	H	-1.2083868334029124 	1.9975205157199283  	0.07830889214820895 
	H	-1.3781645376259344 	1.1783849968584696  	-1.472578389588903  
	H	0.7740653886701612  	1.5846078050194843  	1.5383025980021674  
	H	3.112547901583335   	0.8667387310383177  	1.646775679360793   
	H	5.123512941852182   	0.15201677253741508 	-0.6412374869411568 
	H	4.834424297354013   	-0.7488775668941409 	0.8680490511766686  
	H	4.66450671649942    	-1.5686354712933603 	-0.6838294307807663 
	H	2.697754397959101   	-1.1343925597868287 	-2.141484354801836  
	H	0.3567860933184847  	-0.4285292960582692 	-2.2727143814106836 
end

charge 1

basis
	* library 6-31G*
end

driver
	maxiter 100
	xyz 371_4
end

dft
	xc b3lyp
	maxiter 2000
end
task dft optimize

esp
	recalculate
	range 0.2
	probe 0.1
	spacing 0.025
end
task esp