echo
title 371_ESP_Calculation
start 371

geometry
	C	-3.4130496894111695 	0.9824384895385824  	0.3251543656030335  
	N	-2.111243896782358  	0.21716947482372115 	0.1093269956964273  
	C	-2.042503756048099  	-0.9241862520630743 	1.1131305951155743  
	C	-2.1090874337681784 	-0.35695802911618335	-1.299720114351252  
	C	-0.9398274506267387 	1.2025484431823317  	0.3086508019475925  
	C	0.45062965466215155 	0.6447739248955241  	0.1391455182769276  
	C	1.1447632562561731  	0.10668173523881844 	1.233212581335894   
	C	2.4287701887754145  	-0.4194921567180655 	1.0726755558419736  
	C	3.051631557356381   	-0.40224926422267043	-0.1787915652909868 
	C	4.421109307401164   	-0.9919372066737043 	-0.35522464863661224
	C	2.3640407536704333  	0.13186406438436854 	-1.272576997535578  
	C	1.0799602910687418  	0.6586587429603679  	-1.1146873679576197 
	H	-3.4639846897737225 	1.7940169542764735  	-0.40684505063626336
	H	-4.250917790380988  	0.2925416905988125  	0.1861062207032672  
	H	-3.4156715795432606 	1.3825661311753192  	1.3434703658857314  
	H	-1.9858335435471215 	-0.4991950165652844 	2.119477012867742   
	H	-2.9481443369215024 	-1.5298985781634056 	1.0086781529720652  
	H	-1.1648328952166425 	-1.53911135269723   	0.8982348339804485  
	H	-1.2290103375292625 	-0.9924206172628321 	-1.427275218367964  
	H	-3.0154082244755    	-0.9568981431206259 	-1.4287009337841114 
	H	-2.099864248109507  	0.4723003264385814  	-2.0130282987333303 
	H	-1.0497303592656253 	1.6244465690385455  	1.3162577730106277  
	H	-1.097055988270367  	2.027558765247474   	-0.3984457360865186 
	H	0.704066391878272   	0.0956501683721696  	2.228231490259519   
	H	2.9493685490174437  	-0.8356452210722166 	1.934146078132613   
	H	4.340970361903713   	-2.0548116700753165 	-0.6029390451281804 
	H	4.966015140065686   	-0.48128756274281137	-1.1561692982486205 
	H	5.013345184756516   	-0.8847431081510647 	0.5596321061683767  
	H	2.8337446186150226  	0.14923101107439452 	-2.255131819952623  
	H	0.58775096424243    	1.0863876873988407  	-1.9859943530879904 
end

charge 1

basis
	* library 6-31G*
end

driver
	maxiter 100
	xyz 371
end

dft
	xc b3lyp
	maxiter 2000
end
task dft optimize

esp
	recalculate
	range 0.2
	probe 0.1
	spacing 0.025
end
task esp