 argument  1 = /Users/apple/Desktop/王应泽/本科生科研/Science_Denmark/复现/NWChem_calc/371/371.nw



============================== echo of input deck ==============================
echo
title 371_ESP_Calculation
start 371

geometry
	C	-3.430796659155599  	-0.9750104320914746 	-0.06406050325694174
	N	-2.1146155302937055 	-0.20510520396165835	-0.10397976476539358
	C	-2.139616260694402  	0.8633955126338623  	0.9790191701124124
	C	-1.9809319654610587 	0.46548762520512205 	-1.463258817711277
	C	-0.966712284947261  	-1.2092789266811697 	0.13420888256928423
	C	0.4329566460243072  	-0.6488842890651093 	0.13385010103453965
	C	1.023026789811892   	-0.19505877454994125	1.3230219459931476
	C	2.3151705741193345  	0.3356320843824826  	1.3190759460977197
	C	3.0417205267599936  	0.4265080189961542  	0.12814667816361788
	C	4.445086427599117   	0.960304756999167   	0.1323608404984273
	C	2.4693952482470967  	-0.05108675425780611	-1.0545591687050444
	C	1.1774332847694982  	-0.5822333025853654 	-1.0534079671132326
	H	-3.4132424886863584 	-1.7334811403193646 	-0.8524068437206569
	H	-4.2520640982666675 	-0.27171358693843267	-0.23200876577752416
	H	-3.528353643096687  	-1.4448367954381645 	0.9192102952803738
	H	-1.2457108566931008 	1.4860032095858144  	0.8900400898492071
	H	-2.1769469197712144 	0.36919735646668167 	1.9541806983278198
	H	-3.0315730543447996 	1.480783182679475   	0.8333328718537698
	H	-2.871267271243178  	1.0788130941569183  	-1.6338871966548572
	H	-1.905171856639697  	-0.31229576332210673	-2.2286863252367155
	H	-1.0927771830229915 	1.1025161064727143  	-1.4637191022897538
	H	-1.0570957094590536 	-1.9821834507012448 	-0.6402484673562014
	H	-1.1698671511266376 	-1.6994092260648432 	1.0953723432913833
	H	0.49498676209360276 	-0.2589459336658595 	2.272510171954235
	H	2.759479638609822   	0.6723731612844381  	2.2547881532949385
	H	4.57166174379784    	1.7186740591707923  	0.9121394700279705
	H	4.684496989462484   	1.4357312730962968  	-0.8246396625966639
	H	5.1542738092889255  	0.14629151156372358 	0.31104678804634767
	H	3.034946468032582   	-0.0183596732336182 	-1.9848509759474342
	H	0.7721080242860259  	-0.953827699817331  	-1.9925908852630054
end

charge 1

basis
	* library 6-31G*
end

driver
	maxiter 100
	xyz 371
end

dft
	xc b3lyp
	maxiter 2000
end
task dft optimize

esp
	recalculate
	range 0.2
	probe 0.1
	spacing 0.025
end
task esp
================================================================================


                                         
                                         


             Northwest Computational Chemistry Package (NWChem) 7.0.0
             --------------------------------------------------------


                    Environmental Molecular Sciences Laboratory
                       Pacific Northwest National Laboratory
                                Richland, WA 99352

                              Copyright (c) 1994-2019
                       Pacific Northwest National Laboratory
                            Battelle Memorial Institute

             NWChem is an open-source computational chemistry package
                        distributed under the terms of the
                      Educational Community License (ECL) 2.0
             A copy of the license is included with this distribution
                              in the LICENSE.TXT file

                                  ACKNOWLEDGMENT
                                  --------------

            This software and its documentation were developed at the
            EMSL at Pacific Northwest National Laboratory, a multiprogram
            national laboratory, operated for the U.S. Department of Energy
            by Battelle under Contract Number DE-AC05-76RL01830. Support
            for this work was provided by the Department of Energy Office
            of Biological and Environmental Research, Office of Basic
            Energy Sciences, and the Office of Advanced Scientific Computing.


           Job information
           ---------------

    hostname        = appledeMacBook-Pro.local
    program         = nwchem
    date            = Wed Aug  5 00:15:06 2020

    compiled        = Fri_Jul_03_06:05:09_2020
    source          = /private/tmp/nwchem-20200703-71421-tc8c0i/nwchem-7.0.0
    nwchem branch   = 7.0.0
    nwchem revision = 2c9a1c7c
    ga revision     = 5.7.1
    use scalapack   = T
    input           = /Users/apple/Desktop/王应泽/本科生科研/Science_Denmark/复现/NWChem_calc/371/371.nw
    prefix          = 371.
    data base       = ./371.db
    status          = startup
    nproc           =        1
    time left       =     -1s



           Memory information
           ------------------

    heap     =   13107196 doubles =    100.0 Mbytes
    stack    =   13107201 doubles =    100.0 Mbytes
    global   =   26214400 doubles =    200.0 Mbytes (distinct from heap & stack)
    total    =   52428797 doubles =    400.0 Mbytes
    verify   = yes
    hardfail = no 


           Directory information
           ---------------------

  0 permanent = .
  0 scratch   = .




                                NWChem Input Module
                                -------------------


                                371_ESP_Calculation
                                -------------------

 Scaling coordinates for geometry "geometry" by  1.889725989
 (inverse scale =  0.529177249)

 CS  symmetry detected

          ------
          auto-z
          ------
  no constraints, skipping    0.0000000000000000     
  no constraints, skipping    0.0000000000000000     


                             Geometry "geometry" -> ""
                             -------------------------

 Output coordinates in angstroms (scale by  1.889725989 to convert to a.u.)

  No.       Tag          Charge          X              Y              Z
 ---- ---------------- ---------- -------------- -------------- --------------
    1 C                    6.0000    -0.48012368    -3.72883023     0.00000000
    2 N                    7.0000     0.13081060    -2.33117516     0.00000000
    3 C                    6.0000     0.99930493    -2.17669267     1.23978155
    4 C                    6.0000     0.99930493    -2.17669267    -1.23978155
    5 C                    6.0000    -1.02303201    -1.30578363     0.00000000
    6 C                    6.0000    -0.63339188     0.15068331     0.00000000
    7 C                    6.0000    -0.45460410     0.84423473     1.20635449
    8 C                    6.0000    -0.08122162     2.19029094     1.20493572
    9 C                    6.0000     0.12394399     2.86887987     0.00000000
   10 C                    6.0000     0.48635063     4.32595022     0.00000000
   11 C                    6.0000    -0.08122162     2.19029094    -1.20493572
   12 C                    6.0000    -0.45460410     0.84423473    -1.20635449
   13 H                    1.0000    -1.09332709    -3.83955062    -0.89933217
   14 H                    1.0000     0.33015465    -4.46419566     0.00000000
   15 H                    1.0000    -1.09332709    -3.83955062     0.89933217
   16 H                    1.0000     1.52221715    -1.21796011     1.19484658
   17 H                    1.0000     0.35673573    -2.23105603     2.12336237
   18 H                    1.0000     1.72977286    -2.99169901     1.25244289
   19 H                    1.0000     1.72977286    -2.99169901    -1.25244289
   20 H                    1.0000     0.35673573    -2.23105603    -2.12336237
   21 H                    1.0000     1.52221715    -1.21796011    -1.19484658
   22 H                    1.0000    -1.64041178    -1.52467273    -0.88105877
   23 H                    1.0000    -1.64041178    -1.52467273     0.88105877
   24 H                    1.0000    -0.61561451     0.35504567     2.16510646
   25 H                    1.0000     0.04179815     2.71369768     2.15218109
   26 H                    1.0000     1.08449904     4.57916913     0.88164479
   27 H                    1.0000     1.08449904     4.57916913    -0.88164479
   28 H                    1.0000    -0.42140080     4.93708058     0.00000000
   29 H                    1.0000     0.04179815     2.71369768    -2.15218109
   30 H                    1.0000    -0.61561451     0.35504567    -2.16510646

      Atomic Mass 
      ----------- 

      C                 12.000000
      N                 14.003070
      H                  1.007825


 Effective nuclear repulsion energy (a.u.)     713.4069949999

            Nuclear Dipole moment (a.u.) 
            ----------------------------
        X                 Y               Z
 ---------------- ---------------- ----------------
     0.0000000000     0.0000000000     0.0000000000

      Symmetry information
      --------------------

 Group name             Cs        
 Group number              2
 Group order               2
 No. of unique centers    19

      Symmetry unique atoms

     1    2    3    5    6    7    8    9   10   13   14   16   17   18   22
    24   25   26   28



                                Z-matrix (autoz)
                                -------- 

 Units are Angstrom for bonds and degrees for angles

      Type          Name      I     J     K     L     M      Value
      ----------- --------  ----- ----- ----- ----- ----- ----------
    1 Stretch                  1     2                       1.52535
    2 Stretch                  1    13                       1.09411
    3 Stretch                  1    14                       1.09422
    4 Stretch                  1    15                       1.09411
    5 Stretch                  2     3                       1.52158
    6 Stretch                  2     4                       1.52158
    7 Stretch                  2     5                       1.54363
    8 Stretch                  3    16                       1.09299
    9 Stretch                  3    17                       1.09388
   10 Stretch                  3    18                       1.09452
   11 Stretch                  4    19                       1.09452
   12 Stretch                  4    20                       1.09388
   13 Stretch                  4    21                       1.09299
   14 Stretch                  5     6                       1.50769
   15 Stretch                  5    22                       1.09788
   16 Stretch                  5    23                       1.09788
   17 Stretch                  6     7                       1.40295
   18 Stretch                  6    12                       1.40295
   19 Stretch                  7     8                       1.39688
   20 Stretch                  7    24                       1.08832
   21 Stretch                  8     9                       1.39802
   22 Stretch                  8    25                       1.08920
   23 Stretch                  9    10                       1.50146
   24 Stretch                  9    11                       1.39802
   25 Stretch                 10    26                       1.09508
   26 Stretch                 10    27                       1.09508
   27 Stretch                 10    28                       1.09430
   28 Stretch                 11    12                       1.39688
   29 Stretch                 11    29                       1.08920
   30 Stretch                 12    30                       1.08832
   31 Bend                     1     2     3               108.76214
   32 Bend                     1     2     4               108.76214
   33 Bend                     1     2     5               108.01590
   34 Bend                     2     1    13               108.49376
   35 Bend                     2     1    14               108.61441
   36 Bend                     2     1    15               108.49376
   37 Bend                     2     3    16               109.18599
   38 Bend                     2     3    17               108.53096
   39 Bend                     2     3    18               108.34625
   40 Bend                     2     4    19               108.34625
   41 Bend                     2     4    20               108.53096
   42 Bend                     2     4    21               109.18599
   43 Bend                     2     5     6               116.64943
   44 Bend                     2     5    22               106.73243
   45 Bend                     2     5    23               106.73243
   46 Bend                     3     2     4               109.13495
   47 Bend                     3     2     5               111.05185
   48 Bend                     4     2     5               111.05185
   49 Bend                     5     6     7               120.69664
   50 Bend                     5     6    12               120.69664
   51 Bend                     6     5    22               109.75084
   52 Bend                     6     5    23               109.75084
   53 Bend                     6     7     8               120.63417
   54 Bend                     6     7    24               121.09379
   55 Bend                     6    12    11               120.63417
   56 Bend                     6    12    30               121.09379
   57 Bend                     7     6    12               118.60391
   58 Bend                     7     8     9               120.51975
   59 Bend                     7     8    25               119.49599
   60 Bend                     8     7    24               118.26664
   61 Bend                     8     9    10               120.42867
   62 Bend                     8     9    11               119.05901
   63 Bend                     9     8    25               119.98226
   64 Bend                     9    10    26               110.86921
   65 Bend                     9    10    27               110.86921
   66 Bend                     9    10    28               109.98248
   67 Bend                     9    11    12               120.51975
   68 Bend                     9    11    29               119.98226
   69 Bend                    10     9    11               120.42867
   70 Bend                    11    12    30               118.26664
   71 Bend                    12    11    29               119.49599
   72 Bend                    13     1    14               110.30490
   73 Bend                    13     1    15               110.56625
   74 Bend                    14     1    15               110.30490
   75 Bend                    16     3    17               110.96757
   76 Bend                    16     3    18               109.53242
   77 Bend                    17     3    18               110.22379
   78 Bend                    19     4    20               110.22379
   79 Bend                    19     4    21               109.53242
   80 Bend                    20     4    21               110.96757
   81 Bend                    22     5    23               106.74113
   82 Bend                    26    10    27               107.23919
   83 Bend                    26    10    28               108.90279
   84 Bend                    27    10    28               108.90279
   85 Torsion                  1     2     3    16         174.17511
   86 Torsion                  1     2     3    17         -64.74463
   87 Torsion                  1     2     3    18          54.94299
   88 Torsion                  1     2     4    19         -54.94299
   89 Torsion                  1     2     4    20          64.74463
   90 Torsion                  1     2     4    21        -174.17511
   91 Torsion                  1     2     5     6         180.00000
   92 Torsion                  1     2     5    22         -56.92868
   93 Torsion                  1     2     5    23          56.92868
   94 Torsion                  2     5     6     7         -90.30988
   95 Torsion                  2     5     6    12          90.30988
   96 Torsion                  3     2     1    13        -179.29409
   97 Torsion                  3     2     1    14         -59.37563
   98 Torsion                  3     2     1    15          60.54283
   99 Torsion                  3     2     4    19          63.57385
  100 Torsion                  3     2     4    20        -176.73854
  101 Torsion                  3     2     4    21         -55.65828
  102 Torsion                  3     2     5     6          60.81753
  103 Torsion                  3     2     5    22        -176.11114
  104 Torsion                  3     2     5    23         -62.25379
  105 Torsion                  4     2     1    13         -60.54283
  106 Torsion                  4     2     1    14          59.37563
  107 Torsion                  4     2     1    15         179.29409
  108 Torsion                  4     2     3    16          55.65828
  109 Torsion                  4     2     3    17         176.73854
  110 Torsion                  4     2     3    18         -63.57385
  111 Torsion                  4     2     5     6         -60.81753
  112 Torsion                  4     2     5    22          62.25379
  113 Torsion                  4     2     5    23         176.11114
  114 Torsion                  5     2     1    13          60.08154
  115 Torsion                  5     2     1    14         180.00000
  116 Torsion                  5     2     1    15         -60.08154
  117 Torsion                  5     2     3    16         -67.09074
  118 Torsion                  5     2     3    17          53.98951
  119 Torsion                  5     2     3    18         173.67713
  120 Torsion                  5     2     4    19        -173.67713
  121 Torsion                  5     2     4    20         -53.98951
  122 Torsion                  5     2     4    21          67.09074
  123 Torsion                  5     6     7     8         179.38882
  124 Torsion                  5     6     7    24          -1.47141
  125 Torsion                  5     6    12    11        -179.38882
  126 Torsion                  5     6    12    30           1.47141
  127 Torsion                  6     7     8     9          -0.15438
  128 Torsion                  6     7     8    25         179.33075
  129 Torsion                  6    12    11     9           0.15438
  130 Torsion                  6    12    11    29        -179.33075
  131 Torsion                  7     6     5    22         148.19371
  132 Torsion                  7     6     5    23          31.18653
  133 Torsion                  7     6    12    11           1.21819
  134 Torsion                  7     6    12    30        -177.92158
  135 Torsion                  7     8     9    10         178.21949
  136 Torsion                  7     8     9    11           1.53091
  137 Torsion                  8     7     6    12          -1.21819
  138 Torsion                  8     9    10    26          32.17926
  139 Torsion                  8     9    10    27         151.17776
  140 Torsion                  8     9    10    28         -88.32149
  141 Torsion                  8     9    11    12          -1.53091
  142 Torsion                  8     9    11    29         177.95172
  143 Torsion                  9     8     7    24        -179.31801
  144 Torsion                  9    11    12    30         179.31801
  145 Torsion                 10     9     8    25          -1.26314
  146 Torsion                 10     9    11    12        -178.21949
  147 Torsion                 10     9    11    29           1.26314
  148 Torsion                 11     9     8    25        -177.95172
  149 Torsion                 11     9    10    26        -151.17776
  150 Torsion                 11     9    10    27         -32.17926
  151 Torsion                 11     9    10    28          88.32149
  152 Torsion                 12     6     5    22         -31.18653
  153 Torsion                 12     6     5    23        -148.19371
  154 Torsion                 12     6     7    24         177.92158
  155 Torsion                 24     7     8    25           0.16712
  156 Torsion                 29    11    12    30          -0.16712


            XYZ format geometry
            -------------------
    30
 geometry
 C                    -0.48012368    -3.72883023     0.00000000
 N                     0.13081060    -2.33117516     0.00000000
 C                     0.99930493    -2.17669267     1.23978155
 C                     0.99930493    -2.17669267    -1.23978155
 C                    -1.02303201    -1.30578363     0.00000000
 C                    -0.63339188     0.15068331     0.00000000
 C                    -0.45460410     0.84423473     1.20635449
 C                    -0.08122162     2.19029094     1.20493572
 C                     0.12394399     2.86887987     0.00000000
 C                     0.48635063     4.32595022     0.00000000
 C                    -0.08122162     2.19029094    -1.20493572
 C                    -0.45460410     0.84423473    -1.20635449
 H                    -1.09332709    -3.83955062    -0.89933217
 H                     0.33015465    -4.46419566     0.00000000
 H                    -1.09332709    -3.83955062     0.89933217
 H                     1.52221715    -1.21796011     1.19484658
 H                     0.35673573    -2.23105603     2.12336237
 H                     1.72977286    -2.99169901     1.25244289
 H                     1.72977286    -2.99169901    -1.25244289
 H                     0.35673573    -2.23105603    -2.12336237
 H                     1.52221715    -1.21796011    -1.19484658
 H                    -1.64041178    -1.52467273    -0.88105877
 H                    -1.64041178    -1.52467273     0.88105877
 H                    -0.61561451     0.35504567     2.16510646
 H                     0.04179815     2.71369768     2.15218109
 H                     1.08449904     4.57916913     0.88164479
 H                     1.08449904     4.57916913    -0.88164479
 H                    -0.42140080     4.93708058     0.00000000
 H                     0.04179815     2.71369768    -2.15218109
 H                    -0.61561451     0.35504567    -2.16510646

 ==============================================================================
                                internuclear distances
 ------------------------------------------------------------------------------
       center one      |      center two      | atomic units |  angstroms
 ------------------------------------------------------------------------------
    2 N                |   1 C                |     2.88249  |     1.52535
    3 C                |   2 N                |     2.87537  |     1.52158
    4 C                |   2 N                |     2.87537  |     1.52158
    5 C                |   2 N                |     2.91703  |     1.54363
    6 C                |   5 C                |     2.84911  |     1.50769
    7 C                |   6 C                |     2.65119  |     1.40295
    8 C                |   7 C                |     2.63973  |     1.39688
    9 C                |   8 C                |     2.64187  |     1.39802
   10 C                |   9 C                |     2.83735  |     1.50146
   11 C                |   9 C                |     2.64187  |     1.39802
   12 C                |   6 C                |     2.65119  |     1.40295
   12 C                |  11 C                |     2.63973  |     1.39688
   13 H                |   1 C                |     2.06757  |     1.09411
   14 H                |   1 C                |     2.06777  |     1.09422
   15 H                |   1 C                |     2.06757  |     1.09411
   16 H                |   3 C                |     2.06545  |     1.09299
   17 H                |   3 C                |     2.06713  |     1.09388
   18 H                |   3 C                |     2.06835  |     1.09452
   19 H                |   4 C                |     2.06835  |     1.09452
   20 H                |   4 C                |     2.06713  |     1.09388
   21 H                |   4 C                |     2.06545  |     1.09299
   22 H                |   5 C                |     2.07469  |     1.09788
   23 H                |   5 C                |     2.07469  |     1.09788
   24 H                |   7 C                |     2.05662  |     1.08832
   25 H                |   8 C                |     2.05829  |     1.08920
   26 H                |  10 C                |     2.06940  |     1.09508
   27 H                |  10 C                |     2.06940  |     1.09508
   28 H                |  10 C                |     2.06793  |     1.09430
   29 H                |  11 C                |     2.05829  |     1.08920
   30 H                |  12 C                |     2.05662  |     1.08832
 ------------------------------------------------------------------------------
                         number of included internuclear distances:         30
 ==============================================================================



 ==============================================================================
                                 internuclear angles
 ------------------------------------------------------------------------------
        center 1       |       center 2       |       center 3       |  degrees
 ------------------------------------------------------------------------------
    2 N                |   1 C                |  13 H                |   108.49
    2 N                |   1 C                |  14 H                |   108.61
    2 N                |   1 C                |  15 H                |   108.49
   13 H                |   1 C                |  14 H                |   110.30
   13 H                |   1 C                |  15 H                |   110.57
   14 H                |   1 C                |  15 H                |   110.30
    1 C                |   2 N                |   3 C                |   108.76
    1 C                |   2 N                |   4 C                |   108.76
    1 C                |   2 N                |   5 C                |   108.02
    3 C                |   2 N                |   4 C                |   109.13
    3 C                |   2 N                |   5 C                |   111.05
    4 C                |   2 N                |   5 C                |   111.05
    2 N                |   3 C                |  16 H                |   109.19
    2 N                |   3 C                |  17 H                |   108.53
    2 N                |   3 C                |  18 H                |   108.35
   16 H                |   3 C                |  17 H                |   110.97
   16 H                |   3 C                |  18 H                |   109.53
   17 H                |   3 C                |  18 H                |   110.22
    2 N                |   4 C                |  19 H                |   108.35
    2 N                |   4 C                |  20 H                |   108.53
    2 N                |   4 C                |  21 H                |   109.19
   19 H                |   4 C                |  20 H                |   110.22
   19 H                |   4 C                |  21 H                |   109.53
   20 H                |   4 C                |  21 H                |   110.97
    2 N                |   5 C                |   6 C                |   116.65
    2 N                |   5 C                |  22 H                |   106.73
    2 N                |   5 C                |  23 H                |   106.73
    6 C                |   5 C                |  22 H                |   109.75
    6 C                |   5 C                |  23 H                |   109.75
   22 H                |   5 C                |  23 H                |   106.74
    5 C                |   6 C                |   7 C                |   120.70
    5 C                |   6 C                |  12 C                |   120.70
    7 C                |   6 C                |  12 C                |   118.60
    6 C                |   7 C                |   8 C                |   120.63
    6 C                |   7 C                |  24 H                |   121.09
    8 C                |   7 C                |  24 H                |   118.27
    7 C                |   8 C                |   9 C                |   120.52
    7 C                |   8 C                |  25 H                |   119.50
    9 C                |   8 C                |  25 H                |   119.98
    8 C                |   9 C                |  10 C                |   120.43
    8 C                |   9 C                |  11 C                |   119.06
   10 C                |   9 C                |  11 C                |   120.43
    9 C                |  10 C                |  26 H                |   110.87
    9 C                |  10 C                |  27 H                |   110.87
    9 C                |  10 C                |  28 H                |   109.98
   26 H                |  10 C                |  27 H                |   107.24
   26 H                |  10 C                |  28 H                |   108.90
   27 H                |  10 C                |  28 H                |   108.90
    9 C                |  11 C                |  12 C                |   120.52
    9 C                |  11 C                |  29 H                |   119.98
   12 C                |  11 C                |  29 H                |   119.50
    6 C                |  12 C                |  11 C                |   120.63
    6 C                |  12 C                |  30 H                |   121.09
   11 C                |  12 C                |  30 H                |   118.27
 ------------------------------------------------------------------------------
                            number of included internuclear angles:         54
 ==============================================================================



  library name resolved from: .nwchemrc
  library file name is: </usr/local/Cellar/nwchem/7.0.0_2/share/nwchem/libraries/>
  

