echo
title imine_5_ESP_Calculation
start imine_5

geometry
	C	0.47931920064703826 	-2.1244483195620534 	0.39623569013438287 
	N	-0.9391351160830106 	-1.5786330926917824 	0.34029008476651423 
	C	-1.1869545562973163 	-0.9927348596761906 	-1.0397211511603264 
	C	-1.9117938691145044 	-2.733629740593025  	0.5638612127653171  
	C	-1.1894678060886172 	-0.5240805740800906 	1.44666965256485    
	C	-0.33044013115955506	0.7224767987718936  	1.4258326184213683  
	C	-0.7667406487417615 	1.9512890783204004  	0.878476301521622   
	C	-2.1473151012323766 	2.15965478577143    	0.31371952542081544 
	C	0.11423930581755588 	3.047990844692656   	0.8645053558414242  
	C	1.391671407239643   	2.9542816023504344  	1.4121696270624011  
	C	1.8086126160469618  	1.7649344524843291  	1.9926230671852856  
	C	0.9547780374239686  	0.6628025679027063  	2.0047099602870473  
	H	0.5581711517442451  	-2.954878598038892  	-0.3126723552748384 
	H	0.676648287427585   	-2.478137734379297  	1.4122195373150483  
	H	1.1791034664842148  	-1.33600070679235   	0.10860878958914563 
	H	-0.4759775431023199 	-0.1821269227469492 	-1.2184453539624114 
	H	-1.0389072169361453 	-1.7838160033481625 	-1.7817120854602808 
	H	-2.217940551763107  	-0.6318112694540305 	-1.0824744685719254 
	H	-1.715065968210654  	-3.166267671032323  	1.5493392748464945  
	H	-1.7520221578308797 	-3.4812654794143327 	-0.21900931209127816
	H	-2.932733375974121  	-2.3435720459593083 	0.5124781530214326  
	H	-1.0477855898904507 	-1.0419098786733991 	2.404903598429523   
	H	-2.25334036219525   	-0.26918027470211003	1.3948714129881403  
	H	-2.9110238629079337 	1.8176654691279936  	1.018487759005884   
	H	-2.3475056432473123 	3.220775038841299   	0.1276408843528912  
	H	-2.256913981186773  	1.6341529451590255  	-0.6373296416838348 
	H	-0.19616366970519616	4.0018810833091765  	0.43828211834660036 
	H	2.052624111323188   	3.8185595921334126  	1.4022330203862963  
	H	2.796903735255787   	1.7006049848194706  	2.443205584208897   
	H	1.309068844501898   	-0.24582413193459238	2.4882620019824473  
end

charge 1

basis
	* library 6-31G*
end

driver
	maxiter 100
	xyz imine_5
end

dft
	xc b3lyp
	maxiter 2000
end
task dft optimize

esp
	recalculate
	range 0.2
	probe 0.1
	spacing 0.025
end
task esp