echo
title 87_ESP_Calculation
start 87

geometry
	C	-2.781448079917955  	-1.5330076554103906 	-1.1144705939222455 
	N	-1.8109691873331377 	-0.8020175465547448 	-0.19703866962492833
	C	-2.4339134946815193 	0.5171856524133268  	0.22472678663966422 
	C	-1.5584034221077798 	-1.6579683834380319 	1.0317039803871304  
	C	-0.4948041869183793 	-0.5649275065005617 	-0.9859203715890271 
	C	0.6348869660150122  	0.15234223776850456 	-0.278181790938875  
	C	1.6100197795980284  	-0.5797708087175291 	0.4351197498133152  
	O	1.4497613157968872  	-1.9423674647991744 	0.44716522378289375 
	C	2.536715901492244   	-2.7215365915436207 	0.945010506437936   
	C	2.6483135319167266  	0.09091522486375321 	1.0852875178252461  
	C	2.7370814655322584  	1.4794848218814283  	1.0183565319734307  
	C	1.7949842771516624  	2.2109901817263737  	0.2987485336910932  
	C	0.7495255917864098  	1.558099480165291   	-0.35801920710186846
	O	-0.21753832981535093	2.199991827851344   	-1.0896319277363682 
	C	0.0014080613958629277	3.5773659334308445  	-1.3918446243812066 
	H	-2.9671290225978697 	-0.9091505398632213 	-1.9939683759521953 
	H	-3.714180087242413  	-1.7060713869339004 	-0.5690173360453528 
	H	-2.33231007048219   	-2.4863261097562717 	-1.4088333127127306 
	H	-2.5973541647782175 	1.1285561685402272  	-0.666947371257203  
	H	-3.392268871941554  	0.304339233519009   	0.7092344609774295  
	H	-1.7711630969267063 	1.0169198332085037  	0.9355658507765422  
	H	-0.9146964507591532 	-1.1109196612672094 	1.7249908258834414  
	H	-2.521005528150375  	-1.8602684024920257 	1.5122962871755974  
	H	-1.0975030069139498 	-2.5977298628248757 	0.7154945645937724  
	H	-0.16129922124867138	-1.5517660263224795 	-1.3322874823503366 
	H	-0.77610689744788   	-0.024310537834153104	-1.898964220537072  
	H	3.464518160478902   	-2.500163972581028  	0.4071365956971498  
	H	2.2947981396731554  	-3.7748685997558082 	0.7739355964602938  
	H	2.656068927480779   	-2.578308124876319  	2.023627359404023   
	H	3.4081624632158243  	-0.4340346565798488 	1.657045617981587   
	H	3.5498323799710154  	1.9953169355737492  	1.5269869938409228  
	H	1.908853789138957   	3.290954412189328   	0.27509583165666424 
	H	0.9586252248777248  	3.7256730877554793  	-1.9025990512109072 
	H	-0.06814934956404946	4.189903041123896   	-0.48733753644127786
	H	-0.7933135066974398 	3.8974757660403223  	-2.0724669431958906 
end

charge 1

basis
	* library 6-31G*
end

driver
	maxiter 100
	xyz 87
end

dft
	xc b3lyp
	maxiter 2000
end
task dft optimize

esp
	recalculate
	range 0.2
	probe 0.1
	spacing 0.025
end
task esp