echo
title 365_17_ESP_Calculation
start 365_17

geometry
	C	-2.567739278172893  	-1.2213727364790676 	1.3356650802524528  
	N	-2.7836221655209834 	0.1832577675932408  	0.788777949592589   
	C	-2.194221015505498  	1.1919752867321536  	1.7655347288460366  
	C	-4.282380514704327  	0.4379379331518356  	0.6646283042475655  
	C	-2.154953287271769  	0.3354567412405051  	-0.6141722878093459 
	C	-0.6641127172576744 	0.1338573298373391  	-0.7101204718223875 
	C	-0.12784035655286005	-1.136395451293042  	-0.974139950401868  
	C	1.2555395328620842  	-1.3272165724984752 	-1.0335249774038324 
	C	2.131394154819082   	-0.25343071720067584	-0.8348360110139792 
	C	3.6257987641036027  	-0.4487966393738181 	-0.9038276422278504 
	O	4.20700145290402    	0.0504954633431377  	0.30030980952863917 
	C	5.618720224809643   	-0.1229303307589581 	0.30706070955382225 
	C	1.5965432361417873  	1.0189914323113118  	-0.5926699333489684 
	C	0.21535784378170028 	1.2132511719006165  	-0.536244832635437  
	H	-1.5027849204164827 	-1.373186971483906  	1.5295701886288882  
	H	-3.127150749416956  	-1.3170941968553223 	2.272219864031251   
	H	-2.9353497755612827 	-1.9425298243823943 	0.5979582954543475  
	H	-2.7521229773281792 	1.129707970570275   	2.7060729309072897  
	H	-2.2927475585088644 	2.1935975869038957  	1.3368700695037767  
	H	-1.14475922550615   	0.945807583795046   	1.9475559750235159  
	H	-4.7367021456128935 	0.3301663692169887  	1.654178166113425   
	H	-4.431514817679273  	1.4539798375067785  	0.28447275432432617 
	H	-4.703091210302755  	-0.2982942260166258 	-0.027952696116817916
	H	-2.416016571602561  	1.3408518872513215  	-0.970182457805856  
	H	-2.670587499037971  	-0.37794295630459473	-1.2709971721985585 
	H	-0.7748348001022259 	-1.9958982373444196 	-1.1392537812948573 
	H	1.6481113648822596  	-2.3226432976835745 	-1.2391646590261847 
	H	3.8719188571872074  	-1.51214357700487   	-1.0176520946696412 
	H	4.020394608994736   	0.09613216297928917 	-1.7721796079949694 
	H	6.074637221117197   	0.3767259364659785  	-0.5565637187085166 
	H	5.867718544920285   	-1.1902583246645007 	0.3006143737551903  
	H	6.017013297325431   	0.32214006361337033 	1.224199943260111   
	H	2.2675108936616497  	1.8647682377606052  	-0.44472593215730816
	H	-0.15512841144919914	2.2210332971700524  	-0.358974801067388  
end

charge 1

basis
	* library 6-31G*
end

driver
	maxiter 100
	xyz 365_17
end

dft
	xc b3lyp
	maxiter 2000
end
task dft optimize

esp
	recalculate
	range 0.2
	probe 0.1
	spacing 0.025
end
task esp