echo
title 365_35_ESP_Calculation
start 365_35

geometry
	C	-4.375344287355782  	-0.09352456804833296	0.264819817209113   
	N	-2.9055784042826054 	0.21469909993773267 	0.5324955443312707  
	C	-2.62121245704647   	0.0001841662905909952	2.011178022415696   
	C	-2.6393529641127107 	1.670539722968807   	0.1783634852732044  
	C	-2.053451736650027  	-0.7326139420797664 	-0.338811892232376  
	C	-0.5565555066969576 	-0.595194747958366  	-0.22445617386551042
	C	0.1661757289780902  	-1.357002932913082  	0.7057971937022256  
	C	1.5545294528671707  	-1.2278909892307093 	0.8082565767327858  
	C	2.254606797937366   	-0.3470229684129016 	-0.025827368188569025
	C	3.75398401681793    	-0.2052082191625248 	0.11258695203183433 
	O	4.332953845593636   	0.1606496282634023  	-1.1387239449825823 
	C	5.746555016078926   	0.2819797556332973  	-1.0458837586221097 
	C	1.531028255991812   	0.4187624284237795  	-0.9485926803700429 
	C	0.14440970317159516 	0.28974501049073687 	-1.0557259973921445 
	H	-4.989233992307653  	0.5729724833088726  	0.8782040454343698  
	H	-4.577409551958648  	0.07436817427911808 	-0.7972844561133037 
	H	-4.565300384756564  	-1.1373952930292233 	0.5319054674828274  
	H	-2.761487070349469  	-1.0598154781226434 	2.2420934317100953  
	H	-3.3231711384026537 	0.6094504841423872  	2.5891131843577897  
	H	-1.5976416483835696 	0.31539964764897105 	2.229471109701734   
	H	-3.344541380697139  	2.29503197330046    	0.7357841076612215  
	H	-1.6169417098182448 	1.9288561190771094  	0.46561206419952156 
	H	-2.788636460236217  	1.7996868048772707  	-0.8975460047711303 
	H	-2.3624273488726226 	-0.5687074806793028 	-1.3795159552486322 
	H	-2.3526726191870075 	-1.756197825030209  	-0.07784636208598622
	H	-0.33477120390548504	-2.0723854368787618 	1.3552800479407192  
	H	2.093483622205992   	-1.8328155675759288 	1.5362408552075024  
	H	3.9687111660201033  	0.5666533051392408  	0.8607776024552805  
	H	4.1869963743120655  	-1.1585328758674807 	0.4379911306949312  
	H	6.017619232824987   	1.0575441112566433  	-0.32310847122144387
	H	6.132437022810228   	0.5689260784253477  	-2.0276956120156195 
	H	6.195231819488188   	-0.6741564699921836 	-0.7597779182638751 
	H	2.0567121166355276  	1.1099811027283715  	-1.6073411957186148 
	H	-0.3697043067139021 	0.8830346987887707  	-1.8093267321307218 
end

charge 1

basis
	* library 6-31G*
end

driver
	maxiter 100
	xyz 365_35
end

dft
	xc b3lyp
	maxiter 2000
end
task dft optimize

esp
	recalculate
	range 0.2
	probe 0.1
	spacing 0.025
end
task esp