echo
title 365_33_ESP_Calculation
start 365_33

geometry
	C	-2.32396271140228   	-1.1021730716114593 	0.995115675613767   
	N	-2.6039882421366056 	-0.2529647421856016 	-0.23556166179377275
	C	-3.0136549071178433 	1.1448346562533556  	0.20628222115356304 
	C	-3.75964591556577   	-0.8786306014193149 	-1.0109677549125307 
	C	-1.3750929945791344 	-0.20312367053357983	-1.1682767875473603 
	C	-0.1100117592989998 	0.3825035296449192  	-0.5915921269970229 
	C	0.8360236948923165  	-0.4390798820178717 	0.047838633128710464
	C	2.0113491544559845  	0.09970193660993867 	0.5937974801448139  
	C	3.008477744508745   	-0.7883894180914973 	1.3057766244339273  
	O	4.354831072992894   	-0.39112066637266685	1.0572877613118958  
	C	4.867851329630616   	-0.9068252237520974 	-0.16463919177990805
	C	2.223644438596821   	1.4816402705046472  	0.5098349596631756  
	C	1.303608345142787   	2.3042293504997753  	-0.13641703445483347
	C	0.14658891957126688 	1.7585190817732927  	-0.6897153072581    
	H	-1.566538029731774  	-0.6069739664051087 	1.6081559822333393  
	H	-3.2525403624544516 	-1.1981995352768604 	1.5664872182155394  
	H	-1.978352133491884  	-2.086676820666345  	0.6666498867692895  
	H	-3.154933262842236  	1.7635641992497253  	-0.684638314111453  
	H	-3.9509176789259217 	1.068248915206497   	0.766342336110779   
	H	-2.2353828953788613 	1.5597344060299703  	0.8517889358238916  
	H	-3.4667374796093133 	-1.8877734443193277 	-1.3157628615795087 
	H	-4.637000964996221  	-0.9187351557154353 	-0.3583224306419697 
	H	-3.966165678219014  	-0.2570814018174413 	-1.8873743122024234 
	H	-1.188796202076817  	-1.232824145720063  	-1.5003779368839354 
	H	-1.6755646198509326 	0.36647266864200534 	-2.0574416495481596 
	H	0.6698741223168743  	-1.5131467927971491 	0.11706944131181973 
	H	2.8708730955709214  	-1.844016818726009  	1.0422652849061909  
	H	2.832240952487162   	-0.695032840629201  	2.383269985512256   
	H	4.277067787367033   	-0.557273709350403  	-1.0164309747395621 
	H	5.893829602348028   	-0.5481649258242374 	-0.28354088593248583
	H	4.883255507364861   	-2.0006970443090077 	-0.14062495923852852
	H	3.1252818364829613  	1.9203347915183282  	0.9377047072063042  
	H	1.4987300882977543  	3.372313862496005   	-0.2117733130744946 
	H	-0.5442418543491243 	2.425175410364674   	-1.202209630843129  
end

charge 1

basis
	* library 6-31G*
end

driver
	maxiter 100
	xyz 365_33
end

dft
	xc b3lyp
	maxiter 2000
end
task dft optimize

esp
	recalculate
	range 0.2
	probe 0.1
	spacing 0.025
end
task esp