echo
title 202_ESP_Calculation
start 202

geometry
	C	-3.6266890073561306 	0.6511369716288178  	0.38542747719774556 
	N	-2.86099444797063   	-0.20114939316382602	-0.61922194556568   
	C	-3.3548804299924013 	0.15661060953591213 	-2.0255545497677874 
	C	-3.152673658624855  	-1.675727824931281  	-0.372104816868817  
	C	-1.344203958109613  	0.0923326139548324  	-0.569172465418894  
	C	-0.6861028122039732 	-0.2180567381443041 	0.7812515721714705  
	C	0.7852104210687222  	0.11233099396847805 	0.7378024422961544  
	C	1.7263724064901693  	-0.8630621880375863 	0.38264240791928505 
	C	3.088690011045312   	-0.5482868672188879 	0.3130126792891649  
	C	3.5255834094664054  	0.7448731983076665  	0.5946601241298534  
	O	4.818440963225966   	1.1849624232769225  	0.5606401766292131  
	C	5.8244064414225285  	0.2209880813124625  	0.27334732568036574 
	C	2.5888504223800983  	1.7181514176478636  	0.9467422440095162  
	C	1.2290494357926134  	1.4093630820826941  	1.0199811685153766  
	H	-4.697968711063484  	0.5018377410928706  	0.21927284232515298 
	H	-3.3571814343133775 	1.69922807355919    	0.22706604218515836 
	H	-3.363593025879782  	0.33057301505462977 	1.396393695629814   
	H	-3.1569147057417353 	1.2181188306797668  	-2.201524344632593  
	H	-4.429010831136704  	-0.044867972816015796	-2.078804034487704  
	H	-2.8148012008907797 	-0.4615414114767993 	-2.7488485369920292 
	H	-2.904597632331373  	-1.9178112466523585 	0.6642245612856136  
	H	-4.218835705896082  	-1.8508080012838388 	-0.5458192584269819 
	H	-2.549432540028808  	-2.268958305429099  	-1.065207804017984  
	H	-0.8836412091729087 	-0.502631335383912  	-1.368062573516812  
	H	-1.2232339667604175 	1.15265964837849    	-0.8246605234866339 
	H	-1.149591594023066  	0.35611262210591377 	1.5909821626137464  
	H	-0.8039147626922911 	-1.2748129069921077 	1.0449981837566948  
	H	1.4183831017212436  	-1.883207851986227  	0.16234994068030362 
	H	3.7840312242002825  	-1.3353155689010199 	0.03792427562484589 
	H	5.832500284225898   	-0.5771092378832451 	1.0230687269621552  
	H	5.702209985406484   	-0.18560117221898692	-0.7359160749506908 
	H	6.793823746850988   	0.7268678605564083  	0.3139770883185954  
	H	2.927691085237548   	2.7275937605070175  	1.172193375621957   
	H	0.5330186956539544  	2.1942894234809245  	1.30693841529041    
end

charge 1

basis
	* library 6-31G*
end

driver
	maxiter 100
	xyz 202
end

dft
	xc b3lyp
	maxiter 2000
end
task dft optimize

esp
	recalculate
	range 0.2
	probe 0.1
	spacing 0.025
end
task esp