echo
title 87_13_ESP_Calculation
start 87_13

geometry
	C	2.8686897749522937  	-1.3637990753960123 	1.11321930595064    
	N	1.895135822895003   	-0.5383438137346823 	0.2833552958941149  
	C	2.2901722744242834  	0.9250923375864956  	0.375785795435704   
	C	1.9752377826228145  	-0.9935782203435277 	-1.1632230158014047 
	C	0.46953589092165354 	-0.763569492158519  	0.8558731077333955  
	C	-0.6823850906687297 	-0.040948137535088365	0.19069080429398422 
	C	-1.3940267456955202 	-0.6515915842095966 	-0.86588431165773   
	O	-0.9647184563135204 	-1.9006117207176065 	-1.2375560601003157 
	C	-1.8027308345278332 	-2.6399286501168717 	-2.125008086497092  
	C	-2.4550768463220956 	0.023196906176238954	-1.4736866402471451 
	C	-2.827002654168669  	1.2902119302953148  	-1.0300316268875072 
	C	-2.148128280257982  	1.8932927118599199  	0.02633355978480092 
	C	-1.084502214433053  	1.2341999403113373  	0.6467273605260194  
	O	-0.36498207556433315	1.7533155831903573  	1.6932960779151383  
	C	-0.8907703907566206 	2.916265524990277   	2.3316729828437666  
	H	3.8782688094702302  	-1.2131903690006884 	0.7188515474518707  
	H	2.813889958286583   	-1.026713996990226  	2.152719750010899   
	H	2.585526952148091   	-2.4179196314604026 	1.0368076845280918  
	H	2.2147253612357303  	1.2432637522200685  	1.4191672177989259  
	H	3.324923954045998   	1.0231981667915728  	0.03204008837443364 
	H	1.6358223620083527  	1.515756145151196   	-0.2701303868192301 
	H	3.0115171340798756  	-0.8861616232877998 	-1.4995030203299653 
	H	1.6752090890285405  	-2.043637650222077  	-1.2173298323114814 
	H	1.3277355773698643  	-0.36119144931471847	-1.7756716874516913 
	H	0.2988958349464062  	-1.8478515338591923 	0.839708621564998   
	H	0.5200498113183633  	-0.5004975816472381 	1.9204330513847112  
	H	-1.3788621167376705 	-3.6441075857580656 	-2.2212392899501623 
	H	-2.8162170884160607 	-2.7421473731222283 	-1.723101681045447  
	H	-1.8115524472614724 	-2.1854755881003793 	-3.1207822903065487 
	H	-3.016690257628483  	-0.40495507044707213	-2.2989891040924393 
	H	-3.655775323146557  	1.8097342343057112  	-1.5081367807845087 
	H	-2.4773790049869144 	2.8808168990328245  	0.33655708568255627 
	H	-1.9148358266218273 	2.749623450558935   	2.681891918976177   
	H	-0.8316385597813636 	3.7846742419825956  	1.6679379796633262  
	H	-0.2680621764647594 	3.1235783229724956  	3.207204578470064   
end

charge 1

basis
	* library 6-31G*
end

driver
	maxiter 100
	xyz 87_13
end

dft
	xc b3lyp
	maxiter 2000
end
task dft optimize

esp
	recalculate
	range 0.2
	probe 0.1
	spacing 0.025
end
task esp