echo
title 87_44_ESP_Calculation
start 87_44

geometry
	C	2.3197658655796247  	0.7831456608651924  	0.49422601234282365 
	N	1.8796683671488141  	-0.6325379615802049 	0.16493980246648454 
	C	2.8347487575858574  	-1.6121548670916845 	0.8327213638431269  
	C	1.9335198153943192  	-0.842229490138554  	-1.338142491069835  
	C	0.45280163930299366 	-0.9092392286312843 	0.7112376429928419  
	C	-0.6822529007883767 	-0.05319695447153293	0.19116661092891823 
	C	-1.421084868780977  	-0.4585441554428944 	-0.9426503046627677 
	O	-1.0331581607868916 	-1.6399890058716073 	-1.5225196100373957 
	C	-1.8971050455741996 	-2.1937105119135287 	-2.514131799633553  
	C	-2.4665328094306767 	0.33800657959730324 	-1.415135098946684  
	C	-2.795679145765421  	1.5236278796240799  	-0.7620498169972832 
	C	-2.0895854218625973 	1.9226744653735144  	0.3705156515759706  
	C	-1.041373804111315  	1.1391414327918572  	0.8583249619460771  
	O	-0.29787311859388405	1.4553255198659747  	1.9672319109216239  
	C	-0.7816529331816569 	2.5113366081916992  	2.7962807887329797  
	H	1.677468886988195   	1.4916390381578803  	-0.034780037639393295
	H	3.353761281110981   	0.9080276243451258  	0.156909664996628   
	H	2.2636640459532376  	0.9246222845500075  	1.5769948015742932  
	H	2.518594697521089   	-2.630313755745413  	0.5866342663208686  
	H	2.7997400783713524  	-1.4510289046934692 	1.9143660778199145  
	H	3.8448759077070944  	-1.427381408442523  	0.45469100981576266 
	H	1.6006615103509756  	-1.8593412778720275 	-1.5624219639540597 
	H	2.9697646247755873  	-0.710499895969072  	-1.6658541627875907 
	H	1.3007775737722023  	-0.09798505871864265	-1.8280530408841833 
	H	0.5204681861593653  	-0.8289231151027305 	1.8039533341589613  
	H	0.24915667808084668 	-1.97031736628191   	0.517078998154024   
	H	-2.910962760408403  	-2.3343764922514354 	-2.125090056168146  
	H	-1.897839371143691  	-1.576393684374948  	-3.418052175948003  
	H	-1.5034048615840565 	-3.1783346595010538 	-2.783930109883551  
	H	-3.048638265766459  	0.06920850157320597 	-2.2919793682056224 
	H	-3.612462592521577  	2.1389538760758513  	-1.1356938356710946 
	H	-2.3858884137089253 	2.853797105689319   	0.8449901824247806  
	H	-1.8078425215192933 	2.319730404487879   	3.1270705439410484  
	H	-0.6999770059900158 	3.475827841633504   	2.2850723203023646  
	H	-0.14612391428349453	2.5514329712754678  	3.686077927230621   
end

charge 1

basis
	* library 6-31G*
end

driver
	maxiter 100
	xyz 87_44
end

dft
	xc b3lyp
	maxiter 2000
end
task dft optimize

esp
	recalculate
	range 0.2
	probe 0.1
	spacing 0.025
end
task esp