echo
title 87_46_ESP_Calculation
start 87_46

geometry
	C	2.9022426377305144  	-1.375098143159768  	1.0073196636692054  
	N	1.9029444418447827  	-0.5416240472985581 	0.21701230710093278 
	C	2.301711191812635   	0.9207506191949132  	0.31021325190688903 
	C	1.9360104026253753  	-0.9834235351074022 	-1.2355588098199026 
	C	0.49642162717407956 	-0.771659936468932  	0.833143204979805   
	C	-0.6759007514904352 	-0.042478811734711304	0.21223483320599978 
	C	-1.42167753320538   	-0.6430209265356148 	-0.8264363801450048 
	O	-1.0054035635713896 	-1.888679888657311  	-1.223355640394545  
	C	-1.8721089958462553 	-2.619419905465447  	-2.0901130163360016 
	C	-2.5013588143610246 	0.03776166333133705 	-1.393371306728205  
	C	-2.8579468438062565 	1.3007246688693264  	-0.9261931633171927 
	C	-2.1449301776951724 	1.893718586024697   	0.11325354489417196 
	C	-1.0622562190538964 	1.2285147161460723  	0.6928343529048013  
	O	-0.30898474914959045	1.737626510880045   	1.7203967125661606  
	C	-0.8131267434337237 	2.894781243503081   	2.3861766572765672  
	H	2.616069606372715   	-2.42836222053965   	0.9303222978216273  
	H	2.8812518933560147  	-1.0476601794653984 	2.051126072012466   
	H	3.8986612836846124  	-1.221191449545676  	0.5819718626409185  
	H	1.6272375583491723  	1.5176210297643065  	-0.30873397483616016
	H	2.26018919290893    	1.2292393528602448  	1.3583933026134878  
	H	3.3248912696598905  	1.0216828685910284  	-0.06583455139134096
	H	1.2694868111501043  	-0.34514636740042354	-1.820889997686731  
	H	2.9609637882149236  	-0.87325109079074   	-1.6041109753072782 
	H	1.6337078594135674  	-2.032829155565852  	-1.2896875667327983 
	H	0.5814461797888494  	-0.518515103381952  	1.897913371510695   
	H	0.3246410807634081  	-1.8556847213149341 	0.8124345867098575  
	H	-1.912775725888258  	-2.1557273116631226 	-3.0808237954222606 
	H	-2.872159122205445  	-2.725013804976288  	-1.656660822249138  
	H	-1.4522228246941866 	-3.622809782769058  	-2.209291227646496  
	H	-3.08959994057395   	-0.3824990096840856 	-2.2040503638797753 
	H	-3.7013867166740013 	1.824959461496018   	-1.3724442105882804 
	H	-2.4633532302688246 	2.8784297257675746  	0.4431005771726326  
	H	-1.8254510070253913 	2.725247390571658   	2.7677385179372482  
	H	-0.16232637304731776	3.093743245253062   	3.243015986723339   
	H	-0.7749074928584516 	3.7692943092749083  	1.7289546988352567  
end

charge 1

basis
	* library 6-31G*
end

driver
	maxiter 100
	xyz 87_46
end

dft
	xc b3lyp
	maxiter 2000
end
task dft optimize

esp
	recalculate
	range 0.2
	probe 0.1
	spacing 0.025
end
task esp