echo
title 286_ESP_Calculation
start 286

geometry
	C	-1.5453061604455616 	-1.0698654313334048 	-1.1591035907672882 
	N	-1.5975760206406024 	-0.0639750052920937 	-0.018730713041404064
	C	-2.9016694103949505 	-0.2910429307074582 	0.753306138392455   
	C	-1.6352999355058517 	1.3407426698214204  	-0.602120672642517  
	C	-0.4204841236837551 	-0.25113650096953294	0.9814886836912077  
	C	0.999862835451042   	-0.08216794177525229	0.47968495824779145 
	C	1.6596384799332113  	1.1649305541218824  	0.530711571670223   
	Cl	0.9205359312226008  	2.5729447095076843  	1.2116484812361592  
	C	2.9675478221473672  	1.3236665613007388  	0.05870033160996533 
	C	3.655049032408289   	0.23265240750423458 	-0.45384785076853545
	Cl	5.259006388348068   	0.42696652241147637 	-1.0356797595099685 
	C	3.054976744195049   	-1.0182564523873507 	-0.4824108714400572 
	C	1.7470073198012381  	-1.1753830339475855 	-0.010027836288115207
	Cl	1.1206631558138815  	-2.787790354236475  	-0.026972264324331665
	H	-0.6340697399712718 	-0.9014087395855721 	-1.737953558129375  
	H	-2.419910051096112  	-0.9125317755747909 	-1.7985924542588976 
	H	-1.5764489734654668 	-2.0771129494257643 	-0.7369856234514868 
	H	-2.9576644100206293 	0.44357937361561484 	1.5621188150911416  
	H	-3.741398782135676  	-0.16300898348669168	0.06350774190734192 
	H	-2.8922869793247044 	-1.3076731178280856 	1.1574822677786434  
	H	-0.7240153444495298 	1.5078865733900186  	-1.1812753669829432 
	H	-2.506915736355552  	1.4180077958504533  	-1.2601081410691661 
	H	-1.7307540594376303 	2.0562289595066106  	0.21804347092825427 
	H	-0.6161590679255068 	0.4387346791029245  	1.8111050481203315  
	H	-0.5532392281342826 	-1.2466640888881653 	1.4216874262826762  
	H	3.4566184582470445  	2.295812118428983   	0.10281926050700849 
	H	3.6122918554186287  	-1.874135619123395  	-0.8606637530916816 
end

charge 1

basis
	* library 6-31G*
end

driver
	maxiter 100
	xyz 286
end

dft
	xc b3lyp
	maxiter 2000
end
task dft optimize

esp
	recalculate
	range 0.2
	probe 0.1
	spacing 0.025
end
task esp