echo
title 5_ESP_Calculation
start 5

geometry
	C	-2.053806684918599  	-1.5223150408308261 	1.2341482313538354  
	N	-0.6938369628783243 	-0.8274336185132871 	1.1499114226654068  
	C	-0.30223852290638953	-0.37698368337826405	2.551175198141013   
	C	0.33037457758461497 	-1.8313983014420445 	0.6448723745886954  
	C	-0.8376939596343622 	0.37954907186845244 	0.19116926487968336 
	C	0.39914184405615205 	1.2030688329358201  	-0.09124015533426924
	C	0.7079227387699815  	2.3856609391457226  	0.6078551194341419  
	Cl	-0.31892840813417184	3.006060287067978   	1.8507762564657433  
	C	1.8625921628565882  	3.1173613521130963  	0.31335452055774676 
	C	2.718189854742829   	2.683896717255277   	-0.6934692035097617 
	Cl	4.138689629351148   	3.579971975184941   	-1.0548671945452046 
	C	2.426231176228956   	1.5306708359690109  	-1.4144302125068398 
	C	1.2729980383580137  	0.7983594118102176  	-1.1200040393861632 
	H	-2.328137405807516  	-1.8676282961221926 	0.23290416640193934 
	H	-1.9697872726757408 	-2.3710449360299397 	1.9196502243431766  
	H	-2.788714564577566  	-0.8030043917235135 	1.6077092142038383  
	H	-0.2675731381038455 	-1.2590489743231204 	3.1984846136394993  
	H	-1.0586067948189606 	0.3227533189349641  	2.915970784251465   
	H	0.6857402759360846  	0.08834067683990275 	2.5116514609338854  
	H	0.30061903478480617 	-2.7126549163305085 	1.2933662851353256  
	H	1.3244291903855476  	-1.3792272179546872 	0.6888024481045595  
	H	0.06920428616988257 	-2.1084576628869645 	-0.3804628333835969 
	H	-1.6512248235373248 	1.0003839599237634  	0.5834306706531643  
	H	-1.2107236490887188 	-0.03029245832725244	-0.757497118704526  
	H	2.0926290115806028  	4.0292980306976025  	0.8610435805701488  
	H	3.089695087828634   	1.203573387949435   	-2.213441949720579  
	H	1.0630462734547448  	-0.08622220179424596	-1.720052474332544  
end

charge 1

basis
	* library 6-31G*
end

driver
	maxiter 100
	xyz 5
end

dft
	xc b3lyp
	maxiter 2000
end
task dft optimize

esp
	recalculate
	range 0.2
	probe 0.1
	spacing 0.025
end
task esp
