echo
title 181_5_ESP_Calculation
start 181_5

geometry
	C	-2.1059325052556526 	0.17802451338768135 	1.3833023053712115  
	N	-2.4505091493191684 	-0.15471177641514108	0.019139901875534354
	C	-3.759942107160115  	-0.778001521457816  	-0.04253523148455077
	C	-2.507265902680714  	1.058847423982994   	-0.7982828563623217 
	C	-1.5050333290756628 	-1.0630648833223655 	-0.5632662237741943 
	C	-0.09060235026220646	-0.6878992485589233 	-0.2331967582597804 
	C	0.6388613461153241  	0.15744151282062693 	-1.031524312633253  
	C	1.9574506124088262  	0.5164300398589716  	-0.7379822692856111 
	C	2.59479620889386    	0.05453953930941081 	0.3472298935472304  
	S	4.277063266782416   	0.4869712627202226  	0.6696614807348981  
	F	3.9370686454357546  	1.7727228862494322  	2.043500804070576   
	F	5.191582116471904   	-0.8208522270339187 	0.3242755699894751  
	F	5.29936118593614    	0.1257850650984734  	2.2517593394325317  
	F	5.472763105692396   	0.9215597258993489  	-0.829235017495771  
	F	4.693251535868913   	2.5128609926788985  	0.21191280295364365 
	C	1.8620458399720965  	-0.7889182698567697 	1.1420708802127761  
	C	0.5355220057740027  	-1.1798816537905092 	0.8908067871351419  
	H	-2.8844013532590203 	0.8923409397084634  	1.739563383512469   
	H	-2.048668639261491  	-0.7384369622639577 	1.9724150822945508  
	H	-1.0910790457938577 	0.6596624715745288  	1.3455993275071798  
	H	-3.8053033571414145 	-1.50636289802369   	0.7924519764777571  
	H	-4.5004233499001876 	0.030363129194152523	0.10850465235298067 
	H	-3.9107032473838363 	-1.3338125860081083 	-0.9695220459709333 
	H	-3.5274687751204787 	1.4698728388026583  	-0.6865787392511643 
	H	-1.7456172309743523 	1.7964178722293236  	-0.46925316560924724
	H	-2.2793700833216266 	0.7796635626594963  	-1.867161461067337  
	H	-1.674424098333372  	-1.065141415593483  	-1.6604747248879361 
	H	-1.7465135008175998 	-2.0864659917626707 	-0.20896192281732087
	H	0.22331924780705298 	0.5820006386911768  	-1.9218254018875496 
	H	2.473533142758584   	1.1805801004229155  	-1.4028289695366187 
	H	2.4263310138369936  	-1.13664686788612   	2.0164640844022585  
	H	0.05030875130723555 	-1.8358882133152354 	1.560058890676306   
end

charge 1

basis
	* library 6-31G*
end

driver
	maxiter 100
	xyz 181_5
end

dft
	xc b3lyp
	maxiter 2000
end
task dft optimize

esp
	recalculate
	range 0.2
	probe 0.1
	spacing 0.025
end
task esp