echo
title 181_44_ESP_Calculation
start 181_44

geometry
	C	-2.5400599146327494 	-1.4169451493905307 	-0.3455446996212673 
	N	-2.4315673709732497 	-0.027204839983085597	0.03329135607324277 
	C	-3.7619999173342236 	0.5642614392239289  	-0.16473035372442094
	C	-2.1287985037208084 	0.04237934569620178 	1.441121234673615   
	C	-1.5202457884511642 	0.7161346342819028  	-0.7791298470099012 
	C	-0.08870730507946407	0.4586974268772448  	-0.43761343523826113
	C	0.6007669730594424  	-0.5526654803408837 	-1.062503412232343  
	C	1.9363128316629599  	-0.7381992338807314 	-0.6953660703375778 
	C	2.6159392962899823  	0.006326246611762581	0.23819058825150657 
	S	4.282090500859717   	-0.26073072534322084	0.6976997381217407  
	F	5.140536458085826   	0.47716585753594803 	-0.7778388014627453 
	F	4.858938232652607   	0.1405553571283692  	2.5652003220452486  
	F	5.37481725949921    	1.4685305976152823  	1.0788530488979198  
	F	4.259461939660561   	-1.661554392605924  	1.64819893158811    
	F	5.540185415759021   	-1.508162904689537  	-0.07498025594396043
	C	1.8926353767796416  	0.9799868521862574  	0.815735120259559   
	C	0.5601276137879766  	1.2256413957393912  	0.5031019874978467  
	H	-1.7316318019027273 	-2.0377582424461815 	0.1054043219869217  
	H	-3.5217661917501806 	-1.7940954700860174 	0.018279326338848267
	H	-2.5164144790352445 	-1.4647387105277057 	-1.4542400903754285 
	H	-4.549678395660803  	-0.22507586804653895	-0.0567154661811399 
	H	-3.8476364775474496 	1.0069792843256151  	-1.1576324129778603 
	H	-3.883926213756428  	1.369006780109436   	0.5881720035216205  
	H	-1.2806953508310222 	-0.614768380003746  	1.7324482063389264  
	H	-3.0119509883826168 	-0.35951149871179794	2.008694561997401   
	H	-1.9555018852448656 	1.0506621915578285  	1.8199756325712442  
	H	-1.7319080815055705 	0.4308767203105787  	-1.8498469687615575 
	H	-1.774645690466659  	1.7979244344819698  	-0.7035510688866554 
	H	0.18944973752493147 	-1.1831767471714967 	-1.786291549697932  
	H	2.5765152253983867  	-1.520372765612515  	-1.1372943279928678 
	H	2.3609169408630173  	1.6027575278580644  	1.5575460924528712  
	H	0.08844055439269412 	2.0270743173001966  	1.0274543500502267  
end

charge 1

basis
	* library 6-31G*
end

driver
	maxiter 100
	xyz 181_44
end

dft
	xc b3lyp
	maxiter 2000
end
task dft optimize

esp
	recalculate
	range 0.2
	probe 0.1
	spacing 0.025
end
task esp