echo
title 181_14_ESP_Calculation
start 181_14

geometry
	C	-3.6806113713059267 	-0.2948286886396734 	0.7577271869607889  
	N	-2.4310869359794647 	-0.03187532567026665	0.06982105383907414 
	C	-2.702345565470208  	0.6334101241403324  	-1.202899208566087  
	C	-1.7885387231731569 	-1.2932609471599403 	-0.21979854449264535
	C	-1.612227301496502  	0.8297878782247582  	0.8920354900925247  
	C	-0.1721306964080186 	0.6482847396708806  	0.6907342190688921  
	C	0.5083284233018502  	-0.26632446435404344	1.4587966283186966  
	C	1.8956957852561105  	-0.4717919501481662 	1.298211617196952   
	C	2.6109725575944447  	0.20285562991864983 	0.4050270506070247  
	S	4.379688243301716   	0.06407128845934978 	0.3194249072971863  
	F	5.393719528498646   	0.32403210163173457 	-1.3934006272847137 
	F	5.193063850935852   	0.9966014776957532  	0.6392830352348116  
	F	4.004158319973741   	-1.316488961660426  	-1.4732571014884526 
	F	5.396978406470991   	-0.8875429326973505 	1.5647559414710583  
	F	4.68155122578154    	-2.3116030651729953 	0.25562065476077866 
	C	1.914181627539655   	1.1124224347289895  	-0.35715436186926175
	C	0.5297604475000829  	1.3559801786382886  	-0.2365705126122561 
	H	-4.325131182776676  	-0.9603256810065786 	0.12560513841134652 
	H	-4.194593120176866  	0.6681339552373904  	0.8724637104950327  
	H	-3.4636395283931978 	-0.7480430394286052 	1.738575915879784   
	H	-2.6301985542898882 	1.7355821235359705  	-1.0783192533929897 
	H	-1.9710491270004364 	0.30142373709629783 	-1.9873022451196394 
	H	-3.7166347701038833 	0.41428326399607707 	-1.5726073140542294 
	H	-2.5443845144132333 	-1.8893270907115174 	-0.8097143551696501 
	H	-1.5524880052337486 	-1.8501187675538004 	0.7081933238665907  
	H	-0.9064463762116705 	-1.1593369301534482 	-0.8693449640858467 
	H	-1.9444867261249794 	1.8826344138013098  	0.6703189751465283  
	H	-1.925168857081733  	0.6604059396126801  	1.9523132007630122  
	H	0.04571546501099264 	-0.859353031260567  	2.199118580012013   
	H	2.3741164328308546  	-1.1992523443579943 	1.9256990132633263  
	H	2.545408531210834   	1.6322216280141044  	-1.0798085348985755 
	H	0.08782251043302466 	2.077342305572874   	-0.8674605574281437 
end

charge 1

basis
	* library 6-31G*
end

driver
	maxiter 100
	xyz 181_14
end

dft
	xc b3lyp
	maxiter 2000
end
task dft optimize

esp
	recalculate
	range 0.2
	probe 0.1
	spacing 0.025
end
task esp