echo
title 99_ESP_Calculation
start 99

geometry
	C	-2.333949840421718  	0.9222239755224385  	0.9770273882918937  
	N	-2.2205606778095515 	-0.48738652992918574	0.41288866508709043 
	C	-3.6079808462791134 	-0.9407259500600417 	-0.04125767207612191
	C	-1.7399361499932955 	-1.4285786910181484 	1.508907103889682   
	C	-1.2841477205081238 	-0.527745895131779  	-0.811332021898097  
	C	0.15195828304986378 	-0.11335321775794516	-0.5837458436569343 
	C	1.1243455006106058  	-1.060326703972111  	-0.22402503914071037
	C	2.46168654101269    	-0.6860184881110986 	-0.00018952768954800825
	C	3.490899537664767   	-1.7336755264976995 	0.3732103292303731  
	F	3.929871433888806   	-2.4266291536604734 	-0.709129802535042  
	F	4.590653225843658   	-1.2173628987044443 	0.9796311628140779  
	F	2.9806585110965775  	-2.658280486617652  	1.23386470816449    
	C	2.8277641560434112  	0.6587294855640646  	-0.15978585747672824
	C	1.8777956933898512  	1.6247941714743503  	-0.5232620584176535 
	C	2.2761117566477105  	3.074213018086058   	-0.7151716662389853 
	F	1.3165698914472128  	3.9262417603092814  	-0.2576886143471784 
	F	2.462884460752203   	3.3832832448784402  	-2.0243400627897135 
	F	3.4211634717523793  	3.40931825558114    	-0.06682244385473547
	C	0.5469198888407187  	1.224886806212916   	-0.7412929428788132 
	H	-3.0915703586222163 	0.9180777339394012  	1.766856246476383   
	H	-2.631955185490857  	1.596638541006573   	0.16903301945496277 
	H	-1.3687977799435365 	1.2177258546329872  	1.396339800194488   
	H	-3.9588893126738487 	-0.25550182054991943	-0.8186633222042783 
	H	-3.5284201492170304 	-1.9590891615980421 	-0.43321324034201253
	H	-4.282369039361708  	-0.9162457927808989 	0.8200634136658824  
	H	-0.7944139427089174 	-1.0554688684093152 	1.9107014954620363  
	H	-2.4936878276141425 	-1.4481820588972862 	2.3021930959525747  
	H	-1.6152482281652651 	-2.4267815673183595 	1.079330195432295   
	H	-1.3147503848303286 	-1.554000996573911  	-1.2000610126633302 
	H	-1.736530633621401  	0.11511916234874091 	-1.5776955292081403 
	H	0.8554868927649332  	-2.1130631178580637 	-0.1214396247059556 
	H	3.8672195923434702  	0.9570368214810526  	-0.0022502601287192826
	H	-0.17878075988155678	1.9801280943958612  	-1.0479460907144962 
end

charge 1

basis
	* library 6-31G*
end

driver
	maxiter 100
	xyz 99
end

dft
	xc b3lyp
	maxiter 2000
end
task dft optimize

esp
	recalculate
	range 0.2
	probe 0.1
	spacing 0.025
end
task esp