echo
title 202_34_ESP_Calculation
start 202_34

geometry
	C	-3.4355984884745387 	0.3994164389634409  	1.846219143788593   
	N	-2.902256819468066  	0.09928023758728036 	0.4408172453939408  
	C	-3.48206066881937   	1.1311969494400922  	-0.5188618301339778 
	C	-3.3684362616127097 	-1.2949029448577636 	0.04149139333864679 
	C	-1.3600478398536884 	0.1857488796190779  	0.49920907969930167 
	C	-0.6616929968405639 	-0.09487235833918486	-0.8374430905226785 
	C	0.8342681539123383  	0.026331085981374073	-0.685076218981121  
	C	1.6139302798085062  	-1.0953417159160805 	-0.37315336973433805
	C	2.998314775624317   	-0.9768793194056177 	-0.20201271267125287
	C	3.618743689187247   	0.2637217936882841  	-0.3378256229410544 
	O	4.95320757885482    	0.5183984959604436  	-0.19407477825082617
	C	5.8029074042494635  	-0.5950573676028231 	0.0548799946427124  
	C	2.842982562067489   	1.3824385045771845  	-0.6466446335846899 
	C	1.4621088923644079  	1.2698507023786634  	-0.8206733373882084 
	H	-3.029794724227649  	-0.34643853357182   	2.536126687474044   
	H	-3.111795743762566  	1.4048717881586363  	2.131108676384492   
	H	-4.528053005646909  	0.34289099589541505 	1.8231793513401477  
	H	-3.0880586267826438 	2.115119689799359   	-0.24891117269305743
	H	-3.1979470880613046 	0.8654644683285736  	-1.5399901536980036 
	H	-4.572212983982062  	1.1161506708140503  	-0.4246177783696871 
	H	-3.087163802321739  	-1.4789711919889215 	-0.9982809176158679 
	H	-2.894973628469684  	-2.0222399981383976 	0.7070940294254301  
	H	-4.457411357891655  	-1.3367372695339392 	0.14106355707941112 
	H	-1.0348208525582812 	-0.5328623632068831 	1.2622008187856366  
	H	-1.117720758935393  	1.1937399655307404  	0.8589815123674579  
	H	-0.8998284917166541 	-1.0990901983959842 	-1.2048857370800705 
	H	-0.9918895482249191 	0.6044951004780396  	-1.6133371941003198 
	H	1.1608824751399618  	-2.07887768924625   	-0.2659515670465297 
	H	3.5647888978295783  	-1.8721958161482108 	0.03485614780447002 
	H	6.830948981282515   	-0.22485203589413796	0.11331028989636957 
	H	5.562771770646445   	-1.0659225023284027 	1.013779580207729   
	H	5.7549776225830245  	-1.3197137399300891 	-0.764688208808344  
	H	3.3254794565094774  	2.3516338166373103  	-0.758331906129258  
	H	0.8954511475902195  	2.164205460666658   	-1.0695572778794264 
end

charge 1

basis
	* library 6-31G*
end

driver
	maxiter 100
	xyz 202_34
end

dft
	xc b3lyp
	maxiter 2000
end
task dft optimize

esp
	recalculate
	range 0.2
	probe 0.1
	spacing 0.025
end
task esp