echo
title 202_46_ESP_Calculation
start 202_46

geometry
	C	-3.438097406959699  	0.3143208868287882  	1.8579849012946024  
	N	-2.902813934794181  	0.08748363541156182 	0.4396382646354718  
	C	-3.4764260269408878 	1.171483711261337   	-0.46474600569131114
	C	-3.373569082074671  	-1.2815018486507446 	-0.03448435948661377
	C	-1.360413400249385  	0.16448430616662935 	0.5056626158635609  
	C	-0.6601939775506427 	-0.047213071024859506	-0.8426554177051512 
	C	0.83589545994653    	0.059520985596577404	-0.6810080882712841 
	C	1.610366972780691   	-1.0804217567845344 	-0.4279411465152054 
	C	2.9948281546790967  	-0.9769766066209022 	-0.2479202686399607 
	C	3.6205161640512085  	0.26654763753316824 	-0.31594260437818256
	O	4.955663763886403   	0.5076809470657785  	-0.1560895584756036 
	C	5.800337169429779   	-0.6209798476274714 	0.03470834898654467 
	C	2.849927294075524   	1.4033567649684084  	-0.5660609931332332 
	C	1.4690067056276117  	1.305917654451171   	-0.7486479405713626 
	H	-3.0367937229834054 	-0.46895955053151106	2.507890629908996   
	H	-4.530713589720587  	0.2635572754840667  	1.829755298776969   
	H	-3.110948081882051  	1.3018012083399446  	2.1968194015195066  
	H	-3.0791642012683553 	2.137992885181885   	-0.14186608041870155
	H	-4.566836218718059  	1.155835021886593   	-0.37362732767856416
	H	-3.1910874601955803 	0.9594845824934143  	-1.4980285100812578 
	H	-4.462913499998089  	-1.3242159993846858 	0.06057339306543083 
	H	-2.9044016713723972 	-2.045239551560817  	0.5922532813764023  
	H	-3.0907568123855618 	-1.410917271218877  	-1.0820503508197061 
	H	-1.0397075504484492 	-0.5951287308738226 	1.2298601814105075  
	H	-1.1149313010582718 	1.1508492577097549  	0.919214057815539   
	H	-0.9015180693871125 	-1.0293830760303042 	-1.263702880155826  
	H	-0.9858583193275012 	0.693951585136536   	-1.5807446801017742 
	H	1.1531503555693137  	-2.066409253286624  	-0.3744023717696335 
	H	3.5571848325851074  	-1.886000922481024  	-0.05813648499090554
	H	5.751349068243713   	-1.3005850899552718 	-0.8225238828707666 
	H	6.829719082125133   	-0.2586664719278059 	0.11493517066753284 
	H	5.556163941923806   	-1.141435574135431  	0.9665700791176985  
	H	3.336545815015253   	2.3751430442592367  	-0.6247905686315298 
	H	0.9064895473751373  	2.2146232323199544  	-0.9504961040525186 
end

charge 1

basis
	* library 6-31G*
end

driver
	maxiter 100
	xyz 202_46
end

dft
	xc b3lyp
	maxiter 2000
end
task dft optimize

esp
	recalculate
	range 0.2
	probe 0.1
	spacing 0.025
end
task esp