echo
title 202_23_ESP_Calculation
start 202_23

geometry
	C	-2.907719135740266  	1.4660668977749747  	0.4769662662592316  
	N	-2.4366329428952143 	0.02005067694457038 	0.4183359174910052  
	C	-3.6223547815364725 	-0.8859395793094142 	0.7729865578298757  
	C	-1.3522655285782685 	-0.20465895982369456	1.4695420712490461  
	C	-1.9619369881385271 	-0.37506253765461806	-1.000866356716002  
	C	-0.8779774162236258 	0.5140157331570525  	-1.6368256709628255 
	C	0.5096829482583742  	0.3858670000775413  	-1.0623475109316922 
	C	1.1699538745982825  	1.5129076364784693  	-0.5572375854347852 
	C	2.451026927356832   	1.396140592912355   	-0.013826443025545629
	C	3.105385117820034   	0.16400342440097923 	0.015420812213183394
	O	4.34901836757487    	0.1924120528531522  	0.5791697342285098  
	C	5.120676689713179   	-1.0009786217666996 	0.5089353683170987  
	C	2.466470234011211   	-0.9566800883812946 	-0.5109084297131664 
	C	1.1799727770227721  	-0.845638936665636  	-1.0522969589207385 
	H	-3.356068319736386  	1.6444577266042335  	1.459215725831513   
	H	-2.0479393201070533 	2.1267396876692026  	0.3414591365497807  
	H	-3.6464376986883815 	1.6214509255136769  	-0.3144597325456337 
	H	-3.281609710364043  	-1.9252529118719959 	0.745555290161117   
	H	-3.974428283030239  	-0.6253120554112499 	1.7757159439850378  
	H	-4.416193213925916  	-0.720313564028168  	0.03852014504274841 
	H	-0.9343946188046913 	-1.2055381427565546 	1.3318388561399406  
	H	-0.5894551213007598 	0.5669459341957475  	1.3699298255031913  
	H	-1.8115600327773218 	-0.12016180235033505	2.4596723401695666  
	H	-2.855669673135516  	-0.32852641352201223	-1.6357133110369868 
	H	-1.6455271162826042 	-1.423222966721101  	-0.9472904129583908 
	H	-1.1984067246551635 	1.5616652639081592  	-1.6386366118781954 
	H	-0.8029272230324891 	0.24114311173429312 	-2.6985174525761213 
	H	0.7046112319110666  	2.4961095463207603  	-0.5809022700702313 
	H	2.954827076887754   	2.277656584846736   	0.3787387374201689  
	H	5.279466440254929   	-1.309320534409518  	-0.529776308055415  
	H	6.1005087600039865  	-0.7921607155100849 	0.9489690153961485  
	H	4.656490241776719   	-1.8025116801045231 	1.0927154856593078  
	H	2.947535324276934   	-1.9300772396403605 	-0.5239884466359616 
	H	0.7238778374854148  	-1.7362760454645245 	-1.4800937279851067 
end

charge 1

basis
	* library 6-31G*
end

driver
	maxiter 100
	xyz 202_23
end

dft
	xc b3lyp
	maxiter 2000
end
task dft optimize

esp
	recalculate
	range 0.2
	probe 0.1
	spacing 0.025
end
task esp